     Program PWSCF v.7.2 starts on  1Nov2023 at 20:56:38

     Waiting for input...
     Reading input from standard input
Warning: card &CELL ignored
Warning: card CELL_DYNAMICS = 'BFGS', ignored
Warning: card CELL_DOFREE = '2DXY' ignored
Warning: card / ignored

     Current dimensions of program PWSCF are:
     Max number of different atomic species (ntypx) = 10
     Max number of k-points (npk) =  40000
     Max angular momentum in pseudopotentials (lmaxx) =  4
     file O.pbe-n-kjpaw_psl.0.1.UPF: wavefunction(s)  2P renormalized

     IMPORTANT: XC functional enforced from input :
     Exchange-correlation= RVV10
                           (   1   4  13   4  26   0   0)
     Any further DFT definition will be discarded
     Please, verify this is what you really want

     gamma-point specific algorithms are used
     signal trapping enabled: kill the code with -SIGUSR1 to stop cleanly the simulation

     R & G space division:  proc/nbgrp/npool/nimage =      48
     Subspace diagonalization in iterative solution of the eigenvalue problem:
     one sub-group per band group will be used

     Using Slab Decomposition

     bravais-lattice index     =            0
     lattice parameter (alat)  =      17.8707  a.u.
     unit-cell volume          =   17436.2743 (a.u.)^3
     number of atoms/cell      =           36
     number of atomic types    =            3
     number of electrons       =       312.00
     number of Kohn-Sham states=          187
     kinetic-energy cutoff     =      80.0000  Ry
     charge density cutoff     =     650.0000  Ry
     scf convergence threshold =      1.0E-06
     mixing beta               =       0.7000
     number of iterations used =            8  local-TF  mixing
     energy convergence thresh.=      1.0E-04
     force convergence thresh. =      1.0E-02
     Exchange-correlation= RVV10
                           (   1   4  13   4  26   0   0)
     nstep                     =          200

     celldm(1)=  17.870686  celldm(2)=   0.000000  celldm(3)=   0.000000
     celldm(4)=   0.000000  celldm(5)=   0.000000  celldm(6)=   0.000000

     crystal axes: (cart. coord. in units of alat)
               a(1) = (   1.000000   0.000000   0.000000 )
               a(2) = (   0.000000   1.155671   0.000000 )
               a(3) = (   0.000000   0.000000   2.643601 )

     reciprocal axes: (cart. coord. in units 2 pi/alat)
               b(1) = (  1.000000  0.000000  0.000000 )
               b(2) = (  0.000000  0.865298  0.000000 )
               b(3) = (  0.000000  0.000000  0.378272 )

     PseudoPot. # 1 for Mo read from file:
     ../pseudo/Mo_ONCV_PBE-1.0.oncvpsp.upf
     MD5 check sum: 1b5d28e075c9ccadda658a603575cd1f
     Pseudo is Norm-conserving, Zval = 14.0
     Generated using ONCVPSP code by D. R. Hamann
     Using radial grid of 1526 points,  6 beta functions with:
                l(1) =   0
                l(2) =   0
                l(3) =   1
                l(4) =   1
                l(5) =   2
                l(6) =   2

     PseudoPot. # 2 for S  read from file:
     ../pseudo/s_pbe_v1.4.uspp.F.UPF
     MD5 check sum: 88d86576ff6df21479756cfb9bdac1df
     Pseudo is Ultrasoft + core correction, Zval =  6.0
     Generated by new atomic code, or converted to UPF format
     Using radial grid of  907 points,  6 beta functions with:
                l(1) =   0
                l(2) =   0
                l(3) =   1
                l(4) =   1
                l(5) =   2
                l(6) =   2
     Q(r) pseudized with  8 coefficients,  rinner =    1.300   1.300   1.300
                                                       1.300   1.300

     PseudoPot. # 3 for O  read from file:
     ../pseudo/O.pbe-n-kjpaw_psl.0.1.UPF
     MD5 check sum: 0234752ac141de4415c5fc33072bef88
     Pseudo is Projector augmented-wave + core cor, Zval =  6.0
     Generated using "atomic" code by A. Dal Corso  v.5.0.99 svn rev. 10869
     Shape of augmentation charge: BESSEL
     Using radial grid of 1095 points,  4 beta functions with:
                l(1) =   0
                l(2) =   0
                l(3) =   1
                l(4) =   1
     Q(r) pseudized with 0 coefficients

     atomic species   valence    mass     pseudopotential
        Mo            14.00    95.94000     Mo( 1.00)
        S              6.00    32.06500     S ( 1.00)
        O              6.00    15.99940     O ( 1.00)

     No symmetry found

   Cartesian axes

     site n.     atom                  positions (alat units)
         1           Mo  tau(   1) = (   0.6952221   0.1890506   0.2985846  )
         2           S   tau(   2) = (   0.8646417   0.0856217   0.4689279  )
         3           S   tau(   3) = (   0.8663890   0.0857843   0.1351291  )
         4           Mo  tau(   4) = (   0.8560186   0.4753274   0.2873942  )
         5           S   tau(   5) = (   0.6873294   0.3936244   0.4596353  )
         6           S   tau(   6) = (   0.6929804   0.3713468   0.1185692  )
         7           Mo  tau(   7) = (   0.6862796   0.7633098   0.2825370  )
         8           S   tau(   8) = (   0.8545980   0.6708292   0.4486168  )
         9           S   tau(   9) = (   0.8545123   0.6666874   0.1146125  )
        10           Mo  tau(  10) = (   0.8629403   1.0471007   0.3006803  )
        11           S   tau(  11) = (   0.6868280   0.9456650   0.4634891  )
        12           S   tau(  12) = (   0.6998113   0.9568511   0.1205389  )
        13           Mo  tau(  13) = (   0.3618216   0.1847309   0.2935964  )
        14           S   tau(  14) = (   0.5260962   0.0863870   0.4600448  )
        15           S   tau(  15) = (   0.5348379   0.0894875   0.1297123  )
        16           Mo  tau(  16) = (   0.5265817   0.4772436   0.2784130  )
        17           S   tau(  17) = (   0.3624753   0.3882513   0.4525556  )
        18           S   tau(  18) = (   0.3635411   0.3752055   0.1119148  )
        19           Mo  tau(  19) = (   0.3652268   0.7630864   0.2781795  )
        20           S   tau(  20) = (   0.5269494   0.6690381   0.1096838  )
        21           Mo  tau(  21) = (   0.5300192   1.0470394   0.2900995  )
        22           S   tau(  22) = (   0.3670346   0.9457522   0.4574073  )
        23           S   tau(  23) = (   0.3604225   0.9585725   0.1159032  )
        24           Mo  tau(  24) = (   0.0313099   0.1847895   0.3013130  )
        25           S   tau(  25) = (   0.1956761   0.0838230   0.4650863  )
        26           S   tau(  26) = (   0.1967693   0.0903508   0.1278874  )
        27           Mo  tau(  27) = (   0.1967578   0.4753919   0.2813011  )
        28           S   tau(  28) = (   0.0287851   0.3864324   0.4586755  )
        29           S   tau(  29) = (   0.0244514   0.3729871   0.1239344  )
        30           Mo  tau(  30) = (   0.0286728   0.7631204   0.2856894  )
        31           S   tau(  31) = (   0.2011512   0.6675435   0.4465001  )
        32           S   tau(  32) = (   0.1969214   0.6672839   0.1104564  )
        33           Mo  tau(  33) = (   0.1950294   1.0511147   0.2932237  )
        34           S   tau(  34) = (   0.0312912   0.9612169   0.4667423  )
        35           S   tau(  35) = (   0.0292670   0.9563028   0.1216485  )
        36           O   tau(  36) = (   0.6666667   0.8988550   0.5656742  )

     number of k points=     1  Gaussian smearing, width (Ry)=  0.0100
                       cart. coord. in units 2pi/alat
        k(    1) = (   0.0000000   0.0000000   0.0000000), wk =   2.0000000

     Initial potential from superposition of free atoms

     starting charge     311.9873, renormalised to     312.0000

     negative rho (up, down):  2.748E-04 0.000E+00

Carrying out rVV10 run using the following parameters:
Nqs =      20    Nr_points =    1024   r_max =   100.000
b_value =  6.30000    beta =  0.00901
     q_mesh =  0.00010000  0.00030000  0.00058939  0.00100810
               0.00161396  0.00249058  0.00375900  0.00559430
               0.00824984  0.01209221  0.01765183  0.02569619
               0.03733578  0.05417739  0.07854596  0.11380545
               0.16482331  0.23864234  0.34545298  0.50000000

Gradients computed in Reciprocal space

     Starting wfcs are  216 randomized atomic wfcs
     Checking if some PAW data can be deallocated...

     Self-consistent Calculation

     iteration #  1     ecut=    80.00 Ry     beta= 0.70
     Davidson diagonalization with overlap
     ethr =  1.00E-02,  avg # of iterations =  3.0

     Threshold (ethr) on eigenvalues was too large:
     Diagonalizing with lowered threshold

     Davidson diagonalization with overlap
     ethr =  5.46E-04,  avg # of iterations =  4.0

[...]

     total energy              =   -2245.53165418 Ry
     estimated scf accuracy    <       1.95440510 Ry

[...]

     End of self-consistent calculation

          k = 0.0000 0.0000 0.0000 (105382 PWs)   bands (ev):

   -62.8680 -62.8541 -62.8416 -62.8393 -62.8187 -62.8082 -62.7960 -62.7751
   -62.7404 -62.7236 -62.7177 -62.5273 -37.1928 -37.1438 -37.1272 -37.1213
   -37.0885 -37.0823 -37.0695 -37.0621 -37.0418 -37.0380 -37.0252 -37.0220
   -37.0164 -37.0108 -36.9994 -36.9877 -36.9860 -36.9780 -36.9699 -36.9332
   -36.9239 -36.9162 -36.9025 -36.8969 -36.8829 -36.8778 -36.8685 -36.8574
   -36.8399 -36.8376 -36.8103 -36.7814 -36.7805 -36.7123 -36.6438 -36.5476
   -29.5961 -15.9166 -15.1349 -15.0876 -14.9252 -14.8787 -14.7287 -14.4699
   -14.4538 -14.4120 -14.3785 -14.3439 -14.2965 -14.2619 -14.1951 -14.0984
   -14.0936 -14.0780 -14.0014 -13.8912 -13.8638 -13.8157 -13.7553 -12.9700
   -11.5948 -11.5469  -8.8740  -7.5632  -7.4136  -7.2615  -7.2194  -7.2126
    -7.1190  -7.0708  -7.0595  -6.7691  -6.7393  -6.6927  -6.6614  -6.5741
    -6.4805  -6.4024  -6.3707  -6.2473  -6.1394  -6.1041  -5.9191  -5.8422
    -5.8151  -5.7716  -5.7490  -5.7092  -5.6408  -5.6210  -5.5970  -5.5654
    -5.5047  -5.4764  -5.4190  -5.3275  -5.2439  -5.1525  -5.1031  -5.0076
    -4.9527  -4.8991  -4.8830  -4.8374  -4.7820  -4.6517  -4.5542  -4.2920
    -4.2656  -4.1976  -4.1743  -4.1384  -4.0994  -3.9835  -3.8006  -3.7434
    -3.7001  -3.6829  -3.6164  -3.5787  -3.5498  -3.4706  -3.4427  -3.4103
    -3.4061  -3.3409  -3.2687  -3.2234  -3.1424  -3.0426  -2.8925  -2.8081
    -2.7242  -2.7092  -2.6610  -2.6414  -2.6124  -2.5945  -2.5410  -2.3429
    -2.2301  -1.9510  -1.9379  -1.7676  -0.7713  -0.6971  -0.1924  -0.1390
    -0.0734  -0.0463   0.0019   0.0960   0.1696   0.2295   0.2959   0.3127
     0.3580   0.4522   0.4897   0.5259   0.5725   0.6108   0.6668   0.7098
     0.7254   0.7794   0.7955   0.8247   0.8684   0.9198   1.0010   1.0158
     1.0687   1.1379   1.2573

     the Fermi energy is    -1.2695 ev

!    total energy              =   -2245.56293234 Ry
     estimated scf accuracy    <       0.00000035 Ry
     smearing contrib. (-TS)   =      -0.00000002 Ry
     internal energy E=F+TS    =   -2245.56293232 Ry

     The total energy is F=E-TS. E is the sum of the following terms:
     one-electron contribution =  -18465.78837656 Ry
     hartree contribution      =    9221.26032802 Ry
     xc contribution           =    -392.93948941 Ry
     ewald contribution        =    7401.72767591 Ry
[...]
     atom    3 type  2   force =     0.13085327    0.13317879  -38.29763585
     atom    4 type  1   force =     0.20092095   -0.26437411   -0.58777655
     atom    5 type  2   force =    -0.84268098    1.07836928   37.97023671
     atom    6 type  2   force =     0.24916547   -0.39172013  -38.57381043
     atom    7 type  1   force =    -2.84907028   -2.76439194   -1.78955308
     atom    8 type  2   force =    -0.57474688   -0.92798043   37.64428044
     atom    9 type  2   force =     0.50144520   -0.09146334  -38.79878376
     atom   10 type  1   force =     0.57839981    0.24183174   -1.32918996
     atom   11 type  2   force =    -0.42390749   -1.50195200   28.33551936
     atom   12 type  2   force =     0.19162768    0.27296261  -38.57752427
     atom   13 type  1   force =    -0.31736087    1.23268574    1.78098132
     atom   14 type  2   force =    -0.51953884    1.04160525   37.99822625
     atom   15 type  2   force =    -0.04998996    0.07067907  -38.33178848
     atom   16 type  1   force =    -0.38984935    2.92165150    0.14454925
     atom   17 type  2   force =     0.72167010    1.17086123   38.11653853
     atom   18 type  2   force =    -0.30909340   -0.35172652  -38.45837984
     atom   19 type  1   force =     2.14241606   -2.48806735    1.16529343
     atom   20 type  2   force =    -0.16713576   -0.07096332  -39.47665982
     atom   21 type  1   force =    -1.01673824    0.23796655   -3.03680282
     atom   22 type  2   force =    -0.57695040   -1.51292105   37.81550493
     atom   23 type  2   force =    -0.28180825    0.28015060  -38.61482742
     atom   24 type  1   force =     0.46090058    1.01656078    1.69134477
     atom   25 type  2   force =     0.19158172    0.41304627   38.65780438
     atom   26 type  2   force =    -0.07081008    0.04170347  -37.78551189
     atom   27 type  1   force =     0.18195978    0.14271186    0.04531144
     atom   28 type  2   force =     0.11411747    0.49667930   38.02636724
     atom   29 type  2   force =     0.07413718   -0.12414022  -37.98328720
     atom   30 type  1   force =     0.69790329   -1.25382617    0.83193492
     atom   31 type  2   force =     1.15924812   -0.16982220   37.97119861
     atom   32 type  2   force =    -0.35372699   -0.08447397  -38.29498644
     atom   33 type  1   force =     0.47612642   -0.05365727    2.29696091
     atom   34 type  2   force =     1.00569142   -0.50462051   38.23770051
     atom   35 type  2   force =     0.12290531    0.09864565  -38.21356009
     atom   36 type  3   force =    -0.60013136   -1.06645066   50.08347393
     The local contribution  to forces
     atom    1 type  1   force =     0.16511021   -1.61951897   -1.02836433
     atom    2 type  2   force =    -0.30220008   -1.11989568  -38.05033954
     atom    3 type  2   force =    -0.12854951   -0.12358948   38.05394875
     atom    4 type  1   force =    -0.20965201    0.25996132    0.58590077
     atom    5 type  2   force =     0.83764217   -1.05484466  -37.73374031
     atom    6 type  2   force =    -0.24933188    0.39479616   38.32738720
     atom    7 type  1   force =     2.86298307    2.74862822    1.79748773
     atom    8 type  2   force =     0.57217748    0.92134693  -37.39410355
     atom    9 type  2   force =    -0.49392901    0.10517451   38.55144407
     atom   10 type  1   force =    -0.57166376   -0.24902057    1.31115912
     atom   11 type  2   force =     0.43896877    1.49175726  -28.62435343
     atom   12 type  2   force =    -0.18404532   -0.25922352   38.32326458
     atom   13 type  1   force =     0.31515469   -1.25792577   -1.77494338
     atom   14 type  2   force =     0.51996122   -1.03449233  -37.74612214
     atom   15 type  2   force =     0.04892780   -0.06183595   38.09033671
     atom   16 type  1   force =     0.39396585   -2.94945718   -0.11084340
     atom   17 type  2   force =    -0.71735442   -1.14922388  -37.88037126
     atom   18 type  2   force =     0.30856577    0.35340864   38.21403131
     atom   19 type  1   force =    -2.15671695    2.48228150   -1.14223884
     atom   20 type  2   force =     0.16507197    0.08421744   39.23428929
     atom   21 type  1   force =     1.00964092   -0.25103851    3.01334576
     atom   22 type  2   force =     0.58213011    1.50621263  -37.57174904
     atom   23 type  2   force =     0.27381300   -0.26450898   38.37166015
     atom   24 type  1   force =    -0.46115568   -1.03351116   -1.69386470
     atom   25 type  2   force =    -0.19183103   -0.40133812  -38.40838086
     atom   26 type  2   force =     0.06854646   -0.02921727   37.53669239
     atom   27 type  1   force =    -0.17753728   -0.14728918   -0.04733533
     atom   28 type  2   force =    -0.11355733   -0.48403692  -37.77057991
     atom   29 type  2   force =    -0.07347536    0.13141476   37.73603855
     atom   30 type  1   force =    -0.69852338    1.23336746   -0.83614857
     atom   31 type  2   force =    -1.15161389    0.16642143  -37.72411956
     atom   32 type  2   force =     0.34770646    0.09598988   38.04573457
     atom   33 type  1   force =    -0.47299923    0.04730736   -2.30628268
     atom   34 type  2   force =    -1.00768516    0.50985362  -37.98009622
     atom   35 type  2   force =    -0.12213981   -0.08520688   37.97134590
     atom   36 type  3   force =     0.57280238    1.05057078  -47.79235188
     The core correction contribution to forces
     atom    1 type  1   force =     0.00000000    0.00000000    0.00000000
     atom    2 type  2   force =    -0.00005280    0.00038978    0.02125085
     atom    3 type  2   force =     0.00011949    0.00049516   -0.02077755
     atom    4 type  1   force =     0.00000000    0.00000000    0.00000000
     atom    5 type  2   force =    -0.00042770    0.00113792    0.02052180
     atom    6 type  2   force =     0.00026573   -0.00034718   -0.02090941
     atom    7 type  1   force =     0.00000000    0.00000000    0.00000000
     atom    8 type  2   force =    -0.00016118   -0.00006874    0.02131240
     atom    9 type  2   force =     0.00082071    0.00083067   -0.02100676
     atom   10 type  1   force =     0.00000000    0.00000000    0.00000000
     atom   11 type  2   force =     0.00094446   -0.00076845   -0.00992361
     atom   12 type  2   force =     0.00067302    0.00100622   -0.02124306
     atom   13 type  1   force =     0.00000000    0.00000000    0.00000000
     atom   14 type  2   force =     0.00008413    0.00002811    0.02128998
     atom   15 type  2   force =    -0.00007201    0.00046777   -0.02067829
     atom   16 type  1   force =     0.00000000    0.00000000    0.00000000
     atom   17 type  2   force =     0.00048266    0.00107939    0.02051872
     atom   18 type  2   force =    -0.00024084   -0.00041362   -0.02085311
     atom   19 type  1   force =     0.00000000    0.00000000    0.00000000
     atom   20 type  2   force =    -0.00022967    0.00069825   -0.02121930
     atom   21 type  1   force =     0.00000000    0.00000000    0.00000000
     atom   22 type  2   force =     0.00016761   -0.00057341    0.02108014
     atom   23 type  2   force =    -0.00069037    0.00109033   -0.02082107
     atom   24 type  1   force =     0.00000000    0.00000000    0.00000000
     atom   25 type  2   force =    -0.00001308    0.00051113    0.02103536
     atom   26 type  2   force =    -0.00016595    0.00048177   -0.02094167
     atom   27 type  1   force =     0.00000000    0.00000000    0.00000000
     atom   28 type  2   force =     0.00001486    0.00090874    0.02129568
     atom   29 type  2   force =     0.00006869    0.00016410   -0.02085059
     atom   30 type  1   force =     0.00000000    0.00000000    0.00000000
     atom   31 type  2   force =     0.00040661    0.00008942    0.02100427
     atom   32 type  2   force =    -0.00066675    0.00063601   -0.02101273
     atom   33 type  1   force =     0.00000000    0.00000000    0.00000000
     atom   34 type  2   force =    -0.00024025    0.00015953    0.02162398
     atom   35 type  2   force =     0.00007284    0.00075672   -0.02075988
     atom   36 type  3   force =    -0.00028617   -0.00020799    0.02455897
     The Hubbard contrib.    to forces
     atom    1 type  1   force =     0.00000000    0.00000000    0.00000000
     atom    2 type  2   force =     0.00000000    0.00000000    0.00000000
     atom    3 type  2   force =     0.00000000    0.00000000    0.00000000
     atom    4 type  1   force =     0.00000000    0.00000000    0.00000000
     atom    5 type  2   force =     0.00000000    0.00000000    0.00000000
     atom    6 type  2   force =     0.00000000    0.00000000    0.00000000
     atom    7 type  1   force =     0.00000000    0.00000000    0.00000000
     atom    8 type  2   force =     0.00000000    0.00000000    0.00000000
     atom    9 type  2   force =     0.00000000    0.00000000    0.00000000
     atom   10 type  1   force =     0.00000000    0.00000000    0.00000000
     atom   11 type  2   force =     0.00000000    0.00000000    0.00000000
     atom   12 type  2   force =     0.00000000    0.00000000    0.00000000
     atom   13 type  1   force =     0.00000000    0.00000000    0.00000000
     atom   14 type  2   force =     0.00000000    0.00000000    0.00000000
     atom   15 type  2   force =     0.00000000    0.00000000    0.00000000
     atom   16 type  1   force =     0.00000000    0.00000000    0.00000000
     atom   17 type  2   force =     0.00000000    0.00000000    0.00000000
     atom   18 type  2   force =     0.00000000    0.00000000    0.00000000
     atom   19 type  1   force =     0.00000000    0.00000000    0.00000000
     atom   20 type  2   force =     0.00000000    0.00000000    0.00000000
     atom   21 type  1   force =     0.00000000    0.00000000    0.00000000
     atom   22 type  2   force =     0.00000000    0.00000000    0.00000000
     atom   23 type  2   force =     0.00000000    0.00000000    0.00000000
     atom   24 type  1   force =     0.00000000    0.00000000    0.00000000
     atom   25 type  2   force =     0.00000000    0.00000000    0.00000000
     atom   26 type  2   force =     0.00000000    0.00000000    0.00000000
     atom   27 type  1   force =     0.00000000    0.00000000    0.00000000
     atom   28 type  2   force =     0.00000000    0.00000000    0.00000000
     atom   29 type  2   force =     0.00000000    0.00000000    0.00000000
     atom   30 type  1   force =     0.00000000    0.00000000    0.00000000
     atom   31 type  2   force =     0.00000000    0.00000000    0.00000000
     atom   32 type  2   force =     0.00000000    0.00000000    0.00000000
     atom   33 type  1   force =     0.00000000    0.00000000    0.00000000
     atom   34 type  2   force =     0.00000000    0.00000000    0.00000000
     atom   35 type  2   force =     0.00000000    0.00000000    0.00000000
     atom   36 type  3   force =     0.00000000    0.00000000    0.00000000
     The SCF correction term to forces
     atom    1 type  1   force =     0.00000769   -0.00001399   -0.00000044
     atom    2 type  2   force =    -0.00000367   -0.00002420    0.00000668
     atom    3 type  2   force =    -0.00000950   -0.00000943    0.00000412
     atom    4 type  1   force =    -0.00001970    0.00005471    0.00000048
     atom    5 type  2   force =    -0.00000044    0.00001898    0.00000284
     atom    6 type  2   force =     0.00000337    0.00001732   -0.00000617
     atom    7 type  1   force =    -0.00001056    0.00004270    0.00002612
     atom    8 type  2   force =    -0.00000953    0.00002010    0.00000714
     atom    9 type  2   force =    -0.00000328    0.00000185    0.00000021
     atom   10 type  1   force =    -0.00002801   -0.00006515    0.00004195
     atom   11 type  2   force =    -0.00000440   -0.00002007   -0.00000176
     atom   12 type  2   force =    -0.00000110   -0.00001305    0.00002708
     atom   13 type  1   force =     0.00000117   -0.00001893    0.00001446
     atom   14 type  2   force =    -0.00000631   -0.00002238    0.00000407
     atom   15 type  2   force =    -0.00000070   -0.00001061    0.00000585
     atom   16 type  1   force =    -0.00000055    0.00003780    0.00000761
     atom   17 type  2   force =     0.00000003    0.00001810    0.00000484
     atom   18 type  2   force =     0.00000101    0.00001787   -0.00000052
     atom   19 type  1   force =     0.00001658    0.00001434    0.00001890
     atom   20 type  2   force =     0.00001229    0.00001066    0.00000009
     atom   21 type  1   force =     0.00002929   -0.00006017    0.00004647
     atom   22 type  2   force =     0.00001059   -0.00000528    0.00000600
     atom   23 type  2   force =     0.00000155   -0.00001512    0.00001350
     atom   24 type  1   force =     0.00001803   -0.00000669    0.00001536
     atom   25 type  2   force =     0.00000196   -0.00001884    0.00000096
     atom   26 type  2   force =     0.00000163   -0.00001120    0.00001477
     atom   27 type  1   force =    -0.00000152    0.00003427   -0.00000228
     atom   28 type  2   force =     0.00000479    0.00001339    0.00000260
     atom   29 type  2   force =     0.00000285    0.00001814   -0.00000445
     atom   30 type  1   force =    -0.00002827    0.00000262    0.00001193
     atom   31 type  2   force =     0.00000601    0.00001001    0.00000767
     atom   32 type  2   force =     0.00000223    0.00000257    0.00000150
     atom   33 type  1   force =     0.00001709   -0.00003355    0.00003592
     atom   34 type  2   force =    -0.00001014   -0.00000164    0.00000422
     atom   35 type  2   force =    -0.00000539   -0.00001087    0.00001352
     atom   36 type  3   force =    -0.00002218   -0.00006176   -0.00002628

     Total force =     0.006137     Total SCF correction =     0.000202
     Energy error            =      7.3E-05 Ry
     Gradient error          =      1.5E-03 Ry/Bohr

     bfgs converged in  21 scf cycles and  20 bfgs steps
     (criteria: energy <  1.0E-04 Ry, force <  1.0E-02 Ry/Bohr)

     End of BFGS Geometry Optimization

     Final energy             =   -2246.4457795758 Ry

     File ./MoS2-V-O.bfgs deleted, as requested
Begin final coordinates

ATOMIC_POSITIONS (angstrom)
Mo            6.5556782397        1.7410954000        2.7568012904
S             8.1276240802        0.8387699550        4.3704138002
S             8.1403828689        0.8523622886        1.1676842617
Mo            8.1197873810        4.4899411918        2.7103119465
S             6.5179948458        3.6528941604        4.3005941171
S             6.5548352879        3.5495328627        1.1042353826
Mo            6.5123108571        7.1395803668        2.6456960751
S             8.0583452720        6.2927995498        4.3115826533
S             8.1473943199        6.3108874868        1.0983304429
Mo            8.1579648301        9.9483136031        2.7532881635
S             6.5361781283        8.9449725548        4.2298300725
S             6.5861409335        9.0286457054        1.1362416886
Mo            3.4219242906        1.7452089945        2.7626045153
S             4.9886579158        0.7994401675        4.3488345604
S             4.9795712138        0.8426671495        1.1564526196
Mo            4.9936214992        4.5206519792        2.6438650646
S             3.4727899194        3.6574025251        4.3068976066
S             3.4237657528        3.5441576150        1.1102073622
Mo            3.4661930929        7.1695865428        2.6694933096
S             4.9726890335        6.2958582713        1.0265873224
Mo            4.9691804551        9.9133462668        2.7153711723
S             3.4741505655        8.9343121344        4.3293298504
S             3.3763622325        9.0109837702        1.1246664882
Mo            0.2591994555        1.7383470451        2.7735566850
S             1.8485358348        0.8385069096        4.3780872362
S             1.8393965662        0.8235093681        1.1889271032
Mo            1.8650406104        4.4832006365        2.7176926621
S             0.2613931302        3.6043756585        4.3211734283
S             0.2683354504        3.5495839110        1.1527605851
Mo            0.2521744130        7.2035549576        2.7442634645
S             1.8992011335        6.2947841969        4.3060028299
S             1.8404462458        6.3101026951        1.1185965759
Mo            1.8476678066        9.9144753820        2.7810061526
S             0.2497797492        9.0149539350        4.3642928795
S             0.2746684503        9.0346536567        1.1718570327
O             6.5174718172        8.9477430724        5.7287864185
End final coordinates

     Writing all to output data dir ./MoS2-V-O.save/

     General routines

     Parallel routines

   This run was terminated on:  21:31: 3   1Nov2023

   JOB DONE.