     Program PWSCF v.7.2 starts on  1Nov2023 at 16:23: 2

     Waiting for input...
     Reading input from standard input
Warning: card &CELL ignored
Warning: card CELL_DYNAMICS = 'BFGS', ignored
Warning: card CELL_DOFREE = '2DXY' ignored
Warning: card / ignored

     Current dimensions of program PWSCF are:
     Max number of different atomic species (ntypx) = 10
     Max number of k-points (npk) =  40000
     Max angular momentum in pseudopotentials (lmaxx) =  4
     file O.pbe-n-kjpaw_psl.0.1.UPF: wavefunction(s)  2P renormalized

     IMPORTANT: XC functional enforced from input :
     Exchange-correlation= RVV10
                           (   1   4  13   4  26   0   0)
     Any further DFT definition will be discarded
     Please, verify this is what you really want

     gamma-point specific algorithms are used
     signal trapping enabled: kill the code with -SIGUSR1 to stop cleanly the simulation

     R & G space division:  proc/nbgrp/npool/nimage =      48
     Subspace diagonalization in iterative solution of the eigenvalue problem:
     one sub-group per band group will be used

     Using Slab Decomposition

     bravais-lattice index     =            0
     lattice parameter (alat)  =      17.8707  a.u.
     unit-cell volume          =   17436.2743 (a.u.)^3
     number of atoms/cell      =           36
     number of atomic types    =            3
     number of electrons       =       312.00
     number of Kohn-Sham states=          187
     kinetic-energy cutoff     =      80.0000  Ry
     charge density cutoff     =     650.0000  Ry
     scf convergence threshold =      1.0E-06
     mixing beta               =       0.7000
     number of iterations used =            8  local-TF  mixing
     energy convergence thresh.=      1.0E-04
     force convergence thresh. =      1.0E-02
     Exchange-correlation= RVV10
                           (   1   4  13   4  26   0   0)
     nstep                     =          200

     celldm(1)=  17.870686  celldm(2)=   0.000000  celldm(3)=   0.000000
     celldm(4)=   0.000000  celldm(5)=   0.000000  celldm(6)=   0.000000

     crystal axes: (cart. coord. in units of alat)
               a(1) = (   1.000000   0.000000   0.000000 )
               a(2) = (   0.000000   1.155671   0.000000 )
               a(3) = (   0.000000   0.000000   2.643601 )

     reciprocal axes: (cart. coord. in units 2 pi/alat)
               b(1) = (  1.000000  0.000000  0.000000 )
               b(2) = (  0.000000  0.865298  0.000000 )
               b(3) = (  0.000000  0.000000  0.378272 )

     PseudoPot. # 1 for Mo read from file:
     ../pseudo/Mo_ONCV_PBE-1.0.oncvpsp.upf
     MD5 check sum: 1b5d28e075c9ccadda658a603575cd1f
     Pseudo is Norm-conserving, Zval = 14.0
     Generated using ONCVPSP code by D. R. Hamann
     Using radial grid of 1526 points,  6 beta functions with:
                l(1) =   0
                l(2) =   0
                l(3) =   1
                l(4) =   1
                l(5) =   2
                l(6) =   2

     PseudoPot. # 2 for S  read from file:
     ../pseudo/s_pbe_v1.4.uspp.F.UPF
     MD5 check sum: 88d86576ff6df21479756cfb9bdac1df
     Pseudo is Ultrasoft + core correction, Zval =  6.0
     Generated by new atomic code, or converted to UPF format
     Using radial grid of  907 points,  6 beta functions with:
                l(1) =   0
                l(2) =   0
                l(3) =   1
                l(4) =   1
                l(5) =   2
                l(6) =   2
     Q(r) pseudized with  8 coefficients,  rinner =    1.300   1.300   1.300
                                                       1.300   1.300

     PseudoPot. # 3 for O  read from file:
     ../pseudo/O.pbe-n-kjpaw_psl.0.1.UPF
     MD5 check sum: 0234752ac141de4415c5fc33072bef88
     Pseudo is Projector augmented-wave + core cor, Zval =  6.0
     Generated using "atomic" code by A. Dal Corso  v.5.0.99 svn rev. 10869
     Shape of augmentation charge: BESSEL
     Using radial grid of 1095 points,  4 beta functions with:
                l(1) =   0
                l(2) =   0
                l(3) =   1
                l(4) =   1
     Q(r) pseudized with 0 coefficients

     atomic species   valence    mass     pseudopotential
        Mo            14.00    95.94000     Mo( 1.00)
        S              6.00    32.06500     S ( 1.00)
        O              6.00    15.99940     O ( 1.00)

     No symmetry found

   Cartesian axes

     site n.     atom                  positions (alat units)
         1           Mo  tau(   1) = (   0.6952221   0.1890506   0.2985846  )
         2           S   tau(   2) = (   0.8646417   0.0856217   0.4689279  )
         3           S   tau(   3) = (   0.8663890   0.0857843   0.1351291  )
         4           Mo  tau(   4) = (   0.8560186   0.4753274   0.2873942  )
         5           S   tau(   5) = (   0.6873294   0.3936244   0.4596353  )
         6           S   tau(   6) = (   0.6929804   0.3713468   0.1185692  )
         7           Mo  tau(   7) = (   0.6862796   0.7633098   0.2825370  )
         8           S   tau(   8) = (   0.8545980   0.6708292   0.4486168  )
         9           S   tau(   9) = (   0.8545123   0.6666874   0.1146125  )
        10           Mo  tau(  10) = (   0.8629403   1.0471007   0.3006803  )
        11           S   tau(  11) = (   0.6868280   0.9456650   0.4634891  )
        12           S   tau(  12) = (   0.6998113   0.9568511   0.1205389  )
        13           Mo  tau(  13) = (   0.3618216   0.1847309   0.2935964  )
        14           S   tau(  14) = (   0.5260962   0.0863870   0.4600448  )
        15           S   tau(  15) = (   0.5348379   0.0894875   0.1297123  )
        16           Mo  tau(  16) = (   0.5265817   0.4772436   0.2784130  )
        17           S   tau(  17) = (   0.3624753   0.3882513   0.4525556  )
        18           S   tau(  18) = (   0.3635411   0.3752055   0.1119148  )
        19           Mo  tau(  19) = (   0.3652268   0.7630864   0.2781795  )
        20           S   tau(  20) = (   0.5269494   0.6690381   0.1096838  )
        21           Mo  tau(  21) = (   0.5300192   1.0470394   0.2900995  )
        22           S   tau(  22) = (   0.3670346   0.9457522   0.4574073  )
        23           S   tau(  23) = (   0.3604225   0.9585725   0.1159032  )
        24           Mo  tau(  24) = (   0.0313099   0.1847895   0.3013130  )
        25           S   tau(  25) = (   0.1956761   0.0838230   0.4650863  )
        26           S   tau(  26) = (   0.1967693   0.0903508   0.1278874  )
        27           Mo  tau(  27) = (   0.1967578   0.4753919   0.2813011  )
        28           S   tau(  28) = (   0.0287851   0.3864324   0.4586755  )
        29           S   tau(  29) = (   0.0244514   0.3729871   0.1239344  )
        30           Mo  tau(  30) = (   0.0286728   0.7631204   0.2856894  )
        31           S   tau(  31) = (   0.2011512   0.6675435   0.4465001  )
        32           S   tau(  32) = (   0.1969214   0.6672839   0.1104564  )
        33           Mo  tau(  33) = (   0.1950294   1.0511147   0.2932237  )
        34           S   tau(  34) = (   0.0312912   0.9612169   0.4667423  )
        35           S   tau(  35) = (   0.0292670   0.9563028   0.1216485  )
        36           O   tau(  36) = (   0.3333333   0.5136314   0.5650415  )

     number of k points=     1  Gaussian smearing, width (Ry)=  0.0100
                       cart. coord. in units 2pi/alat
        k(    1) = (   0.0000000   0.0000000   0.0000000), wk =   2.0000000

     Initial potential from superposition of free atoms

     starting charge     311.9873, renormalised to     312.0000

     negative rho (up, down):  2.749E-04 0.000E+00

Carrying out rVV10 run using the following parameters:
Nqs =      20    Nr_points =    1024   r_max =   100.000
b_value =  6.30000    beta =  0.00901
     q_mesh =  0.00010000  0.00030000  0.00058939  0.00100810
               0.00161396  0.00249058  0.00375900  0.00559430
               0.00824984  0.01209221  0.01765183  0.02569619
               0.03733578  0.05417739  0.07854596  0.11380545
               0.16482331  0.23864234  0.34545298  0.50000000

Gradients computed in Reciprocal space

     Starting wfcs are  216 randomized atomic wfcs
     Checking if some PAW data can be deallocated...

     Self-consistent Calculation

     iteration #  1     ecut=    80.00 Ry     beta= 0.70
     Davidson diagonalization with overlap
     ethr =  1.00E-02,  avg # of iterations =  2.0

     Threshold (ethr) on eigenvalues was too large:
     Diagonalizing with lowered threshold

     Davidson diagonalization with overlap
     ethr =  4.38E-04,  avg # of iterations =  4.0

[...]

     total energy              =   -2246.27345690 Ry
     estimated scf accuracy    <       1.61773593 Ry

[...]

     End of self-consistent calculation

          k = 0.0000 0.0000 0.0000 (105382 PWs)   bands (ev):

   -63.0536 -62.9912 -62.9747 -62.9630 -62.9510 -62.9319 -62.9049 -62.8780
   -62.8347 -62.8285 -62.8214 -62.7981 -37.3549 -37.3007 -37.2761 -37.2562
   -37.2362 -37.2287 -37.2101 -37.1946 -37.1854 -37.1707 -37.1601 -37.1468
   -37.1366 -37.1280 -37.1211 -37.1166 -37.1042 -37.0922 -37.0882 -37.0637
   -37.0432 -37.0328 -37.0140 -37.0053 -37.0030 -36.9928 -36.9828 -36.9756
   -36.9712 -36.9579 -36.9458 -36.9247 -36.8945 -36.8880 -36.8295 -36.7747
   -21.4357 -16.0339 -15.2787 -15.2180 -15.0371 -14.9814 -14.8691 -14.7201
   -14.5481 -14.5010 -14.4920 -14.4464 -14.4358 -14.4098 -14.3223 -14.2810
   -14.2051 -14.1869 -14.1329 -14.0495 -13.9422 -13.9328 -13.8955 -13.8314
    -8.1064  -7.7940  -7.6345  -7.5807  -7.4483  -7.3684  -7.3190  -7.2822
    -7.2657  -7.0233  -6.9857  -6.8583  -6.8452  -6.7352  -6.6442  -6.6364
    -6.5915  -6.5172  -6.4020  -6.3459  -6.2202  -6.0800  -6.0253  -5.9675
    -5.8851  -5.8508  -5.8441  -5.8081  -5.7462  -5.7384  -5.6729  -5.6421
    -5.6069  -5.5380  -5.4634  -5.3131  -5.2573  -5.2040  -5.1602  -5.0843
    -5.0617  -5.0287  -5.0100  -4.8752  -4.7664  -4.5689  -4.4759  -4.4088
    -4.3321  -4.3067  -4.1949  -4.1413  -4.0861  -3.9808  -3.9400  -3.8602
    -3.8135  -3.7910  -3.7335  -3.6728  -3.6349  -3.6126  -3.5656  -3.5433
    -3.4942  -3.4734  -3.3121  -3.2592  -3.1694  -3.0440  -2.9474  -2.9161
    -2.8912  -2.8259  -2.8019  -2.7653  -2.7335  -2.7041  -2.6777  -2.3794
    -2.2697  -2.0727  -1.9594  -1.7561  -1.0724  -0.8715  -0.6157  -0.2820
    -0.2139  -0.1717  -0.1499  -0.0090   0.0434   0.0722   0.1427   0.1496
     0.1785   0.3091   0.3411   0.4115   0.4451   0.4782   0.5121   0.5332
     0.6147   0.6646   0.6814   0.6949   0.7247   0.8050   0.8092   0.8548
     0.8912   0.9711   1.1115

     the Fermi energy is    -1.4142 ev

!    total energy              =   -2246.29477484 Ry
     estimated scf accuracy    <       0.00000038 Ry
     smearing contrib. (-TS)   =      -0.00002043 Ry
     internal energy E=F+TS    =   -2246.29475441 Ry

     The total energy is F=E-TS. E is the sum of the following terms:
     one-electron contribution =  -18446.50146896 Ry
     hartree contribution      =    9211.14643767 Ry
     xc contribution           =    -392.03122701 Ry
     ewald contribution        =    7390.95667923 Ry
[...]
     atom    3 type  2   force =     0.04246463   -0.17615239  -37.79349524
     atom    4 type  1   force =     0.09087601    0.46694387   -0.84999526
     atom    5 type  2   force =     0.27275470    1.09612115   37.68616901
     atom    6 type  2   force =     0.28683374   -0.50275441  -38.90421560
     atom    7 type  1   force =    -2.37882372   -1.11129885    0.51045207
     atom    8 type  2   force =    -1.14086927    0.47465350   37.91610306
     atom    9 type  2   force =     0.40721187    0.09254594  -38.57763568
     atom   10 type  1   force =    -0.45564691   -0.42498336    2.71474343
     atom   11 type  2   force =    -0.39765098   -1.44073322   38.30681018
     atom   12 type  2   force =     0.21003444    0.40810681  -38.35645181
     atom   13 type  1   force =     0.07582693   -0.59093630   -1.55511959
     atom   14 type  2   force =     0.54889188   -1.03300911   38.01918301
     atom   15 type  2   force =     0.10841246   -0.22524184  -38.24803152
     atom   16 type  1   force =     0.53094188    3.79176717   -2.56498895
     atom   17 type  2   force =     0.79281951    0.95439083   28.05673712
     atom   18 type  2   force =    -0.19609458   -0.42322832  -38.63529339
     atom   19 type  1   force =     2.69429639   -0.94338689    1.42912653
     atom   20 type  2   force =    -0.06843750    0.20624185  -39.57396143
     atom   21 type  1   force =     0.17228910   -0.72237426    0.24611045
     atom   22 type  2   force =     0.47312869   -1.32655646   38.25404169
     atom   23 type  2   force =    -0.22148490    0.37012346  -38.18220849
     atom   24 type  1   force =    -0.57763346   -0.08823627    1.24978730
     atom   25 type  2   force =    -0.36192300   -0.85471662   38.35009593
     atom   26 type  2   force =    -0.15423321   -0.15763954  -38.22677528
     atom   27 type  1   force =    -0.85491752    0.79797684   -3.58284380
     atom   28 type  2   force =    -0.95601421    0.43037650   37.44133980
     atom   29 type  2   force =    -0.04040596   -0.22007658  -38.36022019
     atom   30 type  1   force =    -0.24657555   -0.07709116    0.97016747
     atom   31 type  2   force =     0.60402272    1.24536001   37.57861491
     atom   32 type  2   force =    -0.32747276    0.19340519  -38.66580856
     atom   33 type  1   force =     0.35312520   -0.88426896    2.36351801
     atom   34 type  2   force =    -0.13061278   -0.47410067   38.81912649
     atom   35 type  2   force =    -0.04056665    0.21190477  -37.87452136
     atom   36 type  3   force =     0.58291565    1.15932314   49.96236099
     The local contribution  to forces
     atom    1 type  1   force =    -0.49883917   -0.02969027   -1.40371652
     atom    2 type  2   force =     0.19795896    0.23561638  -38.41784449
     atom    3 type  2   force =    -0.03920149    0.18467561   37.54583819
     atom    4 type  1   force =    -0.09251695   -0.47730518    0.83669971
     atom    5 type  2   force =    -0.27274497   -1.08067219  -37.44716872
     atom    6 type  2   force =    -0.28753893    0.50380541   38.66356218
     atom    7 type  1   force =     2.39650745    1.09844436   -0.49167039
     atom    8 type  2   force =     1.13233506   -0.47501213  -37.66680548
     atom    9 type  2   force =    -0.39958519   -0.07676016   38.32943380
     atom   10 type  1   force =     0.45368604    0.41923126   -2.71756828
     atom   11 type  2   force =     0.39233508    1.44057319  -38.06614535
     atom   12 type  2   force =    -0.20251874   -0.39266720   38.11445081
     atom   13 type  1   force =    -0.07496993    0.55907213    1.54760734
     atom   14 type  2   force =    -0.54858943    1.04217262  -37.76714182
     atom   15 type  2   force =    -0.10745699    0.23472775   38.00720243
     atom   16 type  1   force =    -0.52158091   -3.81317466    2.58505393
     atom   17 type  2   force =    -0.78277909   -0.95823262  -28.34568771
     atom   18 type  2   force =     0.19534785    0.42657063   38.37954288
     atom   19 type  1   force =    -2.70664383    0.94286898   -1.40569717
     atom   20 type  2   force =     0.06705453   -0.19333750   39.33273759
     atom   21 type  1   force =    -0.17382833    0.69763090   -0.24931122
     atom   22 type  2   force =    -0.46737536    1.32681517  -38.01346700
     atom   23 type  2   force =     0.21196984   -0.35623175   37.93633614
     atom   24 type  1   force =     0.57540220    0.07291279   -1.24838285
     atom   25 type  2   force =     0.36131821    0.86391169  -38.10022389
     atom   26 type  2   force =     0.15068052    0.16685169   37.98109787
     atom   27 type  1   force =     0.84539826   -0.79646105    3.55858503
     atom   28 type  2   force =     0.95703826   -0.42407178  -37.18362544
     atom   29 type  2   force =     0.04131544    0.22727972   38.11565047
     atom   30 type  1   force =     0.24725293    0.05806322   -0.97707203
     atom   31 type  2   force =    -0.59776988   -1.24572621  -37.32940439
     atom   32 type  2   force =     0.32200118   -0.17943913   38.41613398
     atom   33 type  1   force =    -0.34373298    0.87999177   -2.36317787
     atom   34 type  2   force =     0.12929824    0.48221640  -38.56505964
     atom   35 type  2   force =     0.04083590   -0.19731334   37.62913967
     atom   36 type  3   force =    -0.56266769   -1.11683402  -47.66978533
     The core correction contribution to forces
     atom    1 type  1   force =     0.00000000    0.00000000    0.00000000
     atom    2 type  2   force =    -0.00006759    0.00039731    0.02098900
     atom    3 type  2   force =     0.00018420    0.00028549   -0.02095039
     atom    4 type  1   force =     0.00000000    0.00000000    0.00000000
     atom    5 type  2   force =    -0.00020192    0.00073283    0.02087615
     atom    6 type  2   force =     0.00016782   -0.00052361   -0.02075507
     atom    7 type  1   force =     0.00000000    0.00000000    0.00000000
     atom    8 type  2   force =    -0.00048285    0.00033192    0.02110431
     atom    9 type  2   force =     0.00084169    0.00078099   -0.02101215
     atom   10 type  1   force =     0.00000000    0.00000000    0.00000000
     atom   11 type  2   force =    -0.00017484   -0.00040254    0.02075537
     atom   12 type  2   force =     0.00065721    0.00114237   -0.02081677
     atom   13 type  1   force =     0.00000000    0.00000000    0.00000000
     atom   14 type  2   force =     0.00006918    0.00017458    0.02132610
     atom   15 type  2   force =     0.00019064    0.00045850   -0.02067773
     atom   16 type  1   force =     0.00000000    0.00000000    0.00000000
     atom   17 type  2   force =     0.00072470   -0.00030205   -0.00995249
     atom   18 type  2   force =    -0.00015840   -0.00030310   -0.02128077
     atom   19 type  1   force =     0.00000000    0.00000000    0.00000000
     atom   20 type  2   force =    -0.00020194    0.00072981   -0.02116232
     atom   21 type  1   force =     0.00000000    0.00000000    0.00000000
     atom   22 type  2   force =     0.00010103   -0.00021909    0.02069596
     atom   23 type  2   force =    -0.00081207    0.00096776   -0.02087345
     atom   24 type  1   force =     0.00000000    0.00000000    0.00000000
     atom   25 type  2   force =    -0.00004846    0.00044305    0.02124299
     atom   26 type  2   force =    -0.00029465    0.00036570   -0.02090316
     atom   27 type  1   force =     0.00000000    0.00000000    0.00000000
     atom   28 type  2   force =     0.00008691    0.00060497    0.02153191
     atom   29 type  2   force =     0.00005420    0.00013537   -0.02067976
     atom   30 type  1   force =     0.00000000    0.00000000    0.00000000
     atom   31 type  2   force =     0.00033704    0.00021785    0.02120428
     atom   32 type  2   force =    -0.00050664    0.00083497   -0.02101789
     atom   33 type  1   force =     0.00000000    0.00000000    0.00000000
     atom   34 type  2   force =    -0.00013767    0.00025766    0.02134683
     atom   35 type  2   force =    -0.00003927    0.00090635   -0.02097788
     atom   36 type  3   force =     0.00024246    0.00043822    0.02459603
     The Hubbard contrib.    to forces
     atom    1 type  1   force =     0.00000000    0.00000000    0.00000000
     atom    2 type  2   force =     0.00000000    0.00000000    0.00000000
     atom    3 type  2   force =     0.00000000    0.00000000    0.00000000
     atom    4 type  1   force =     0.00000000    0.00000000    0.00000000
     atom    5 type  2   force =     0.00000000    0.00000000    0.00000000
     atom    6 type  2   force =     0.00000000    0.00000000    0.00000000
     atom    7 type  1   force =     0.00000000    0.00000000    0.00000000
     atom    8 type  2   force =     0.00000000    0.00000000    0.00000000
     atom    9 type  2   force =     0.00000000    0.00000000    0.00000000
     atom   10 type  1   force =     0.00000000    0.00000000    0.00000000
     atom   11 type  2   force =     0.00000000    0.00000000    0.00000000
     atom   12 type  2   force =     0.00000000    0.00000000    0.00000000
     atom   13 type  1   force =     0.00000000    0.00000000    0.00000000
     atom   14 type  2   force =     0.00000000    0.00000000    0.00000000
     atom   15 type  2   force =     0.00000000    0.00000000    0.00000000
     atom   16 type  1   force =     0.00000000    0.00000000    0.00000000
     atom   17 type  2   force =     0.00000000    0.00000000    0.00000000
     atom   18 type  2   force =     0.00000000    0.00000000    0.00000000
     atom   19 type  1   force =     0.00000000    0.00000000    0.00000000
     atom   20 type  2   force =     0.00000000    0.00000000    0.00000000
     atom   21 type  1   force =     0.00000000    0.00000000    0.00000000
     atom   22 type  2   force =     0.00000000    0.00000000    0.00000000
     atom   23 type  2   force =     0.00000000    0.00000000    0.00000000
     atom   24 type  1   force =     0.00000000    0.00000000    0.00000000
     atom   25 type  2   force =     0.00000000    0.00000000    0.00000000
     atom   26 type  2   force =     0.00000000    0.00000000    0.00000000
     atom   27 type  1   force =     0.00000000    0.00000000    0.00000000
     atom   28 type  2   force =     0.00000000    0.00000000    0.00000000
     atom   29 type  2   force =     0.00000000    0.00000000    0.00000000
     atom   30 type  1   force =     0.00000000    0.00000000    0.00000000
     atom   31 type  2   force =     0.00000000    0.00000000    0.00000000
     atom   32 type  2   force =     0.00000000    0.00000000    0.00000000
     atom   33 type  1   force =     0.00000000    0.00000000    0.00000000
     atom   34 type  2   force =     0.00000000    0.00000000    0.00000000
     atom   35 type  2   force =     0.00000000    0.00000000    0.00000000
     atom   36 type  3   force =     0.00000000    0.00000000    0.00000000
     The SCF correction term to forces
     atom    1 type  1   force =     0.00001049    0.00003753    0.00002009
     atom    2 type  2   force =    -0.00000079   -0.00000193    0.00001337
     atom    3 type  2   force =     0.00000079   -0.00000441   -0.00000018
     atom    4 type  1   force =     0.00000779    0.00004651    0.00001585
     atom    5 type  2   force =    -0.00000053    0.00003608    0.00000928
     atom    6 type  2   force =     0.00000875    0.00003521    0.00001022
     atom    7 type  1   force =     0.00000998   -0.00002722    0.00002908
     atom    8 type  2   force =    -0.00000328   -0.00000637    0.00000287
     atom    9 type  2   force =    -0.00000177   -0.00000636    0.00000887
     atom   10 type  1   force =    -0.00000710   -0.00004628    0.00002283
     atom   11 type  2   force =     0.00000039   -0.00002785    0.00001165
     atom   12 type  2   force =     0.00000583   -0.00002473    0.00000562
     atom   13 type  1   force =    -0.00001101    0.00004485   -0.00000539
     atom   14 type  2   force =     0.00000624   -0.00000038    0.00001164
     atom   15 type  2   force =     0.00000271   -0.00000176   -0.00000111
     atom   16 type  1   force =    -0.00000089    0.00007752    0.00003542
     atom   17 type  2   force =    -0.00000654    0.00008249    0.00001707
     atom   18 type  2   force =    -0.00001297    0.00003057    0.00001152
     atom   19 type  1   force =    -0.00001190   -0.00005987    0.00004647
     atom   20 type  2   force =    -0.00000012   -0.00000354    0.00001442
     atom   21 type  1   force =     0.00000896   -0.00006314    0.00001911
     atom   22 type  2   force =    -0.00000481   -0.00003824    0.00001702
     atom   23 type  2   force =    -0.00000460   -0.00002506    0.00000827
     atom   24 type  1   force =    -0.00000222    0.00004507    0.00001343
     atom   25 type  2   force =    -0.00000756   -0.00000316    0.00000718
     atom   26 type  2   force =    -0.00000248   -0.00000232    0.00000214
     atom   27 type  1   force =    -0.00001516    0.00008783    0.00002362
     atom   28 type  2   force =     0.00000794    0.00003949   -0.00000131
     atom   29 type  2   force =     0.00000561    0.00004037    0.00001973
     atom   30 type  1   force =     0.00001364   -0.00005842    0.00002511
     atom   31 type  2   force =     0.00001852   -0.00001963    0.00001299
     atom   32 type  2   force =     0.00000259   -0.00002076    0.00002063
     atom   33 type  1   force =    -0.00000028   -0.00005697    0.00002258
     atom   34 type  2   force =     0.00000121   -0.00002210    0.00001253
     atom   35 type  2   force =    -0.00000268   -0.00002303    0.00000145
     atom   36 type  3   force =     0.00000970    0.00018368    0.00004258

     Total force =     0.006275     Total SCF correction =     0.000325
     Energy error            =      8.0E-05 Ry
     Gradient error          =      1.5E-03 Ry/Bohr

     bfgs converged in  24 scf cycles and  23 bfgs steps
     (criteria: energy <  1.0E-04 Ry, force <  1.0E-02 Ry/Bohr)

     End of BFGS Geometry Optimization

     Final energy             =   -2246.4442820117 Ry

     File ./MoS2-V-O.bfgs deleted, as requested
Begin final coordinates

ATOMIC_POSITIONS (angstrom)
Mo            6.5480291233        1.8022862133        2.7652196652
S             8.1179942255        0.8894981359        4.3784671241
S             8.1292392181        0.8746049665        1.1866361051
Mo            8.1079117483        4.5275672278        2.7103757715
S             6.5002196390        3.7272040612        4.3149547556
S             6.5537310867        3.5904654235        1.0999667330
Mo            6.5255630878        7.2165635325        2.6497196900
S             8.0793016331        6.3420086725        4.2969232134
S             8.1523088372        6.3597864202        1.1026380381
Mo            8.1262687529        9.9699619842        2.7799340057
S             6.5112654109        8.9679354372        4.3211190515
S             6.5879888457        9.0743652736        1.1271849263
Mo            3.4120918488        1.7512134446        2.7453226808
S             4.9860382398        0.8498537469        4.3501659176
S             4.9999971421        0.8669403809        1.1615617086
Mo            5.0145557499        4.5963920973        2.6344998009
S             3.4585123158        3.6774421753        4.2097458273
S             3.4222141485        3.5920305145        1.1215205115
Mo            3.4757010424        7.2168965244        2.6738784886
S             4.9926273789        6.3699445611        1.0232251810
Mo            4.9920988681        9.9438920977        2.7337080885
S             3.4619914146        8.9800362991        4.3283525464
S             3.3877990060        9.0675052686        1.1397458149
Mo            0.2550444904        1.7787829589        2.7742666821
S             1.8414361833        0.8779193461        4.3766786858
S             1.8149267198        0.8574312988        1.1708600600
Mo            1.8376758810        4.5465540539        2.6982418318
S             0.2585451534        3.6539536764        4.3142153432
S             0.2465615350        3.5864602872        1.1403820260
Mo            0.2672603378        7.2504918730        2.7375202218
S             1.9069139227        6.3342069462        4.3092589562
S             1.8522331281        6.3791954070        1.1059583687
Mo            1.8318648820        9.9678675584        2.7783807813
S             0.2506150265        9.0529857102        4.3719147794
S             0.2507089855        9.0868317445        1.1789090842
O             3.4673653365        3.7111599802        5.7088874056
End final coordinates

     Writing all to output data dir ./MoS2-V-O.save/

     General routines

     Parallel routines

   This run was terminated on:  17: 9:28   1Nov2023

   JOB DONE.