     Program PWSCF v.7.2 starts on  1Nov2023 at 23: 3: 2

     Waiting for input...
     Reading input from standard input
Warning: card &CELL ignored
Warning: card CELL_DYNAMICS = 'BFGS', ignored
Warning: card CELL_DOFREE = '2DXY' ignored
Warning: card / ignored

     Current dimensions of program PWSCF are:
     Max number of different atomic species (ntypx) = 10
     Max number of k-points (npk) =  40000
     Max angular momentum in pseudopotentials (lmaxx) =  4
     file O.pbe-n-kjpaw_psl.0.1.UPF: wavefunction(s)  2P renormalized

     IMPORTANT: XC functional enforced from input :
     Exchange-correlation= RVV10
                           (   1   4  13   4  26   0   0)
     Any further DFT definition will be discarded
     Please, verify this is what you really want

     gamma-point specific algorithms are used
     signal trapping enabled: kill the code with -SIGUSR1 to stop cleanly the simulation

     R & G space division:  proc/nbgrp/npool/nimage =      48
     Subspace diagonalization in iterative solution of the eigenvalue problem:
     one sub-group per band group will be used

     Using Slab Decomposition

     bravais-lattice index     =            0
     lattice parameter (alat)  =      17.8707  a.u.
     unit-cell volume          =   17436.2743 (a.u.)^3
     number of atoms/cell      =           36
     number of atomic types    =            3
     number of electrons       =       312.00
     number of Kohn-Sham states=          187
     kinetic-energy cutoff     =      80.0000  Ry
     charge density cutoff     =     650.0000  Ry
     scf convergence threshold =      1.0E-06
     mixing beta               =       0.7000
     number of iterations used =            8  local-TF  mixing
     energy convergence thresh.=      1.0E-04
     force convergence thresh. =      1.0E-02
     Exchange-correlation= RVV10
                           (   1   4  13   4  26   0   0)
     nstep                     =          200

     celldm(1)=  17.870686  celldm(2)=   0.000000  celldm(3)=   0.000000
     celldm(4)=   0.000000  celldm(5)=   0.000000  celldm(6)=   0.000000

     crystal axes: (cart. coord. in units of alat)
               a(1) = (   1.000000   0.000000   0.000000 )
               a(2) = (   0.000000   1.155671   0.000000 )
               a(3) = (   0.000000   0.000000   2.643601 )

     reciprocal axes: (cart. coord. in units 2 pi/alat)
               b(1) = (  1.000000  0.000000  0.000000 )
               b(2) = (  0.000000  0.865298  0.000000 )
               b(3) = (  0.000000  0.000000  0.378272 )

     PseudoPot. # 1 for Mo read from file:
     ../pseudo/Mo_ONCV_PBE-1.0.oncvpsp.upf
     MD5 check sum: 1b5d28e075c9ccadda658a603575cd1f
     Pseudo is Norm-conserving, Zval = 14.0
     Generated using ONCVPSP code by D. R. Hamann
     Using radial grid of 1526 points,  6 beta functions with:
                l(1) =   0
                l(2) =   0
                l(3) =   1
                l(4) =   1
                l(5) =   2
                l(6) =   2

     PseudoPot. # 2 for S  read from file:
     ../pseudo/s_pbe_v1.4.uspp.F.UPF
     MD5 check sum: 88d86576ff6df21479756cfb9bdac1df
     Pseudo is Ultrasoft + core correction, Zval =  6.0
     Generated by new atomic code, or converted to UPF format
     Using radial grid of  907 points,  6 beta functions with:
                l(1) =   0
                l(2) =   0
                l(3) =   1
                l(4) =   1
                l(5) =   2
                l(6) =   2
     Q(r) pseudized with  8 coefficients,  rinner =    1.300   1.300   1.300
                                                       1.300   1.300

     PseudoPot. # 3 for O  read from file:
     ../pseudo/O.pbe-n-kjpaw_psl.0.1.UPF
     MD5 check sum: 0234752ac141de4415c5fc33072bef88
     Pseudo is Projector augmented-wave + core cor, Zval =  6.0
     Generated using "atomic" code by A. Dal Corso  v.5.0.99 svn rev. 10869
     Shape of augmentation charge: BESSEL
     Using radial grid of 1095 points,  4 beta functions with:
                l(1) =   0
                l(2) =   0
                l(3) =   1
                l(4) =   1
     Q(r) pseudized with 0 coefficients

     atomic species   valence    mass     pseudopotential
        Mo            14.00    95.94000     Mo( 1.00)
        S              6.00    32.06500     S ( 1.00)
        O              6.00    15.99940     O ( 1.00)

     No symmetry found

   Cartesian axes

     site n.     atom                  positions (alat units)
         1           Mo  tau(   1) = (   0.6952221   0.1890506   0.2985846  )
         2           S   tau(   2) = (   0.8646417   0.0856217   0.4689279  )
         3           S   tau(   3) = (   0.8663890   0.0857843   0.1351291  )
         4           Mo  tau(   4) = (   0.8560186   0.4753274   0.2873942  )
         5           S   tau(   5) = (   0.6873294   0.3936244   0.4596353  )
         6           S   tau(   6) = (   0.6929804   0.3713468   0.1185692  )
         7           Mo  tau(   7) = (   0.6862796   0.7633098   0.2825370  )
         8           S   tau(   8) = (   0.8545980   0.6708292   0.4486168  )
         9           S   tau(   9) = (   0.8545123   0.6666874   0.1146125  )
        10           Mo  tau(  10) = (   0.8629403   1.0471007   0.3006803  )
        11           S   tau(  11) = (   0.6868280   0.9456650   0.4634891  )
        12           S   tau(  12) = (   0.6998113   0.9568511   0.1205389  )
        13           Mo  tau(  13) = (   0.3618216   0.1847309   0.2935964  )
        14           S   tau(  14) = (   0.5260962   0.0863870   0.4600448  )
        15           S   tau(  15) = (   0.5348379   0.0894875   0.1297123  )
        16           Mo  tau(  16) = (   0.5265817   0.4772436   0.2784130  )
        17           S   tau(  17) = (   0.3624753   0.3882513   0.4525556  )
        18           S   tau(  18) = (   0.3635411   0.3752055   0.1119148  )
        19           Mo  tau(  19) = (   0.3652268   0.7630864   0.2781795  )
        20           S   tau(  20) = (   0.5269494   0.6690381   0.1096838  )
        21           Mo  tau(  21) = (   0.5300192   1.0470394   0.2900995  )
        22           S   tau(  22) = (   0.3670346   0.9457522   0.4574073  )
        23           S   tau(  23) = (   0.3604225   0.9585725   0.1159032  )
        24           Mo  tau(  24) = (   0.0313099   0.1847895   0.3013130  )
        25           S   tau(  25) = (   0.1956761   0.0838230   0.4650863  )
        26           S   tau(  26) = (   0.1967693   0.0903508   0.1278874  )
        27           Mo  tau(  27) = (   0.1967578   0.4753919   0.2813011  )
        28           S   tau(  28) = (   0.0287851   0.3864324   0.4586755  )
        29           S   tau(  29) = (   0.0244514   0.3729871   0.1239344  )
        30           Mo  tau(  30) = (   0.0286728   0.7631204   0.2856894  )
        31           S   tau(  31) = (   0.2011512   0.6675435   0.4465001  )
        32           S   tau(  32) = (   0.1969214   0.6672839   0.1104564  )
        33           Mo  tau(  33) = (   0.1950294   1.0511147   0.2932237  )
        34           S   tau(  34) = (   0.0312912   0.9612169   0.4667423  )
        35           S   tau(  35) = (   0.0292670   0.9563028   0.1216485  )
        36           O   tau(  36) = (   0.3333333   1.1556707   0.5792558  )

     number of k points=     1  Gaussian smearing, width (Ry)=  0.0100
                       cart. coord. in units 2pi/alat
        k(    1) = (   0.0000000   0.0000000   0.0000000), wk =   2.0000000

     Initial potential from superposition of free atoms

     starting charge     311.9873, renormalised to     312.0000

     negative rho (up, down):  2.751E-04 0.000E+00

Carrying out rVV10 run using the following parameters:
Nqs =      20    Nr_points =    1024   r_max =   100.000
b_value =  6.30000    beta =  0.00901
     q_mesh =  0.00010000  0.00030000  0.00058939  0.00100810
               0.00161396  0.00249058  0.00375900  0.00559430
               0.00824984  0.01209221  0.01765183  0.02569619
               0.03733578  0.05417739  0.07854596  0.11380545
               0.16482331  0.23864234  0.34545298  0.50000000

Gradients computed in Reciprocal space

     Starting wfcs are  216 randomized atomic wfcs
     Checking if some PAW data can be deallocated...

     Self-consistent Calculation

     iteration #  1     ecut=    80.00 Ry     beta= 0.70
     Davidson diagonalization with overlap
     ethr =  1.00E-02,  avg # of iterations =  2.0

     Threshold (ethr) on eigenvalues was too large:
     Diagonalizing with lowered threshold

     Davidson diagonalization with overlap
     ethr =  4.49E-04,  avg # of iterations =  4.0

[...]

     total energy              =   -2246.16518660 Ry
     estimated scf accuracy    <       1.64928298 Ry

[...]

     iteration #  5     ecut=    80.00 Ry     beta= 0.70
     Davidson diagonalization with overlap
     c_bands:  1 eigenvalues not converged
     ethr =  9.29E-06,  avg # of iterations = 20.0

[...]

     End of self-consistent calculation

          k = 0.0000 0.0000 0.0000 (105382 PWs)   bands (ev):

   -63.1104 -63.0196 -62.9950 -62.9521 -62.9377 -62.9169 -62.9048 -62.9034
   -62.8938 -62.8831 -62.8390 -62.8178 -37.4038 -37.3581 -37.2962 -37.2759
   -37.2662 -37.2512 -37.2298 -37.1940 -37.1897 -37.1758 -37.1714 -37.1656
   -37.1548 -37.1402 -37.1247 -37.1173 -37.1041 -37.0892 -37.0788 -37.0743
   -37.0698 -37.0536 -37.0480 -37.0449 -37.0274 -37.0232 -37.0128 -37.0064
   -37.0014 -36.9774 -36.9607 -36.9571 -36.9367 -36.8864 -36.8666 -36.7953
   -19.5873 -16.0300 -15.3065 -15.2212 -15.1235 -15.0281 -14.8398 -14.7270
   -14.6024 -14.5725 -14.5170 -14.4922 -14.4758 -14.3955 -14.3343 -14.2727
   -14.2544 -14.2279 -14.1661 -14.0649 -14.0034 -13.9648 -13.9309 -13.9154
    -7.7895  -7.6445  -7.5711  -7.4543  -7.3997  -7.3732  -7.3536  -7.2872
    -7.2357  -7.0175  -6.9092  -6.8912  -6.8347  -6.8084  -6.6783  -6.6347
    -6.5511  -6.4943  -6.3717  -6.3687  -6.1813  -6.1091  -6.0256  -5.9397
    -5.9318  -5.9075  -5.8170  -5.8034  -5.7501  -5.7125  -5.6811  -5.6238
    -5.6184  -5.5582  -5.5016  -5.4375  -5.2645  -5.2180  -5.1642  -5.1217
    -5.0891  -5.0322  -4.9295  -4.8032  -4.7319  -4.5775  -4.4599  -4.4270
    -4.3684  -4.3437  -4.1768  -4.1382  -4.0087  -3.9978  -3.9089  -3.8893
    -3.8442  -3.8160  -3.7226  -3.6761  -3.6488  -3.6054  -3.5875  -3.5615
    -3.5134  -3.4862  -3.3440  -3.2681  -3.1136  -3.0138  -2.9266  -2.9141
    -2.8739  -2.8432  -2.7821  -2.7642  -2.7482  -2.6739  -2.3947  -2.3616
    -2.1317  -2.0312  -1.9689  -1.8865  -1.4985  -0.9117  -0.8101  -0.2861
    -0.2544  -0.2004  -0.1092  -0.0849   0.0155   0.0342   0.1448   0.1625
     0.2164   0.2585   0.3098   0.3467   0.4287   0.4569   0.4816   0.5234
     0.5480   0.6075   0.6631   0.6766   0.7305   0.7453   0.8278   0.8368
     0.8557   0.9310   1.1477

     the Fermi energy is    -1.6906 ev

!    total energy              =   -2246.20163862 Ry
     estimated scf accuracy    <       0.00000056 Ry
     smearing contrib. (-TS)   =      -0.00157489 Ry
     internal energy E=F+TS    =   -2246.20006372 Ry

     The total energy is F=E-TS. E is the sum of the following terms:
[...]
     atom    3 type  2   force =     0.01663677   -0.08939157  -38.31891838
     atom    4 type  1   force =    -0.54262649    0.85725187   -0.36186414
     atom    5 type  2   force =    -0.80904492    1.44769439   38.01310966
     atom    6 type  2   force =     0.19618852   -0.23562743  -38.40535086
     atom    7 type  1   force =    -2.60351266   -2.00198187    1.71177159
     atom    8 type  2   force =    -1.30909261    0.16468865   38.10086184
     atom    9 type  2   force =     0.29999413   -0.01555556  -38.34820469
     atom   10 type  1   force =    -1.00898789   -0.98812521    1.27087643
     atom   11 type  2   force =    -0.44825076   -1.70204240   38.16698834
     atom   12 type  2   force =     0.21658204    0.19451081  -38.40314902
     atom   13 type  1   force =     1.05610365    1.26398772   -1.15828842
     atom   14 type  2   force =     0.99783976   -0.14502339   37.89183448
     atom   15 type  2   force =     0.04078804   -0.10369787  -38.32788218
     atom   16 type  1   force =     0.38376215    3.84499461    1.00454048
     atom   17 type  2   force =     1.32473984    2.13637024   37.81878669
     atom   18 type  2   force =    -0.18536419   -0.17897543  -38.73195044
     atom   19 type  1   force =     2.78679916   -2.36742517    1.68476732
     atom   20 type  2   force =     0.04083216   -0.04890727  -39.13452748
     atom   21 type  1   force =     0.57952458   -0.83283353   -0.68429814
     atom   22 type  2   force =     1.01894604   -2.31038280   37.90970266
     atom   23 type  2   force =    -0.14301357    0.21219038  -38.73701513
     atom   24 type  1   force =    -0.92801569    0.96254348   -1.74093590
     atom   25 type  2   force =     0.25205492   -0.00216896   28.71338814
     atom   26 type  2   force =    -0.05977905   -0.07151509  -38.10909437
     atom   27 type  1   force =     0.14495304    1.24009569   -0.55416288
     atom   28 type  2   force =    -0.51427026    1.51639169   37.62746456
     atom   29 type  2   force =     0.00349236    0.08117129  -38.40201886
     atom   30 type  1   force =    -0.18777803   -1.18771800    1.21946698
     atom   31 type  2   force =     1.17261861    0.16772832   37.95397391
     atom   32 type  2   force =    -0.34363029   -0.02093524  -38.25860416
     atom   33 type  1   force =     0.44799876   -1.54849358   -1.17040833
     atom   34 type  2   force =    -0.60466764   -1.43875548   38.23803310
     atom   35 type  2   force =    -0.08196784    0.06171208  -38.28895572
     atom   36 type  3   force =     0.10854887    0.08592114   50.48080237
     The local contribution  to forces
     atom    1 type  1   force =     0.14904421   -1.08743471   -1.20086403
     atom    2 type  2   force =     1.17152782    0.01751680  -37.87908174
     atom    3 type  2   force =    -0.01319270    0.09892459   38.07530496
     atom    4 type  1   force =     0.53850940   -0.86434490    0.35609657
     atom    5 type  2   force =     0.80488014   -1.42412624  -37.77503309
     atom    6 type  2   force =    -0.19633307    0.24110737   38.15780208
     atom    7 type  1   force =     2.61844916    1.99830479   -1.68594195
     atom    8 type  2   force =     1.29989272   -0.16561395  -37.85409819
     atom    9 type  2   force =    -0.29331030    0.02745633   38.10035302
     atom   10 type  1   force =     1.00562381    0.98174761   -1.27303301
     atom   11 type  2   force =     0.44343170    1.70107716  -37.92505078
     atom   12 type  2   force =    -0.20863017   -0.18168466   38.15788137
     atom   13 type  1   force =    -1.04933890   -1.27590148    1.14708384
     atom   14 type  2   force =    -0.99744484    0.14888132  -37.63871671
     atom   15 type  2   force =    -0.04155845    0.11366329   38.08819392
     atom   16 type  1   force =    -0.38383868   -3.87970738   -0.96980073
     atom   17 type  2   force =    -1.32003319   -2.11535781  -37.58102150
     atom   18 type  2   force =     0.18478999    0.18097849   38.48719921
     atom   19 type  1   force =    -2.80650667    2.36741108   -1.65757039
     atom   20 type  2   force =    -0.04133353    0.06118878   38.89323942
     atom   21 type  1   force =    -0.57851008    0.80285233    0.68137156
     atom   22 type  2   force =    -1.01242653    2.30956009  -37.66752000
     atom   23 type  2   force =     0.13544134   -0.19925477   38.49371208
     atom   24 type  1   force =     0.92141182   -0.97100831    1.72289273
     atom   25 type  2   force =    -0.24485899   -0.00146648  -29.00044567
     atom   26 type  2   force =     0.05774893    0.08224020   37.85167246
     atom   27 type  1   force =    -0.14007155   -1.24339598    0.55153043
     atom   28 type  2   force =     0.51374337   -1.50385020  -37.37137778
     atom   29 type  2   force =    -0.00310242   -0.07356014   38.15573039
     atom   30 type  1   force =     0.19262569    1.17002240   -1.22344567
     atom   31 type  2   force =    -1.16594074   -0.16846156  -37.70702983
     atom   32 type  2   force =     0.33714625    0.03353788   38.00829531
     atom   33 type  1   force =    -0.44709180    1.53270442    1.15337910
     atom   34 type  2   force =     0.60258924    1.44524283  -37.98020463
     atom   35 type  2   force =     0.08139779   -0.04892372   38.04422742
     atom   36 type  3   force =    -0.12990151   -0.08910599  -48.18922463
     The core correction contribution to forces
     atom    1 type  1   force =     0.00000000    0.00000000    0.00000000
     atom    2 type  2   force =     0.00005374    0.00020470    0.02131639
     atom    3 type  2   force =     0.00021663    0.00038189   -0.02074612
     atom    4 type  1   force =     0.00000000    0.00000000    0.00000000
     atom    5 type  2   force =    -0.00039811    0.00105304    0.02056709
     atom    6 type  2   force =     0.00014661   -0.00020582   -0.02090336
     atom    7 type  1   force =     0.00000000    0.00000000    0.00000000
     atom    8 type  2   force =    -0.00052390    0.00025974    0.02099655
     atom    9 type  2   force =     0.00071621    0.00068094   -0.02100719
     atom   10 type  1   force =     0.00000000    0.00000000    0.00000000
     atom   11 type  2   force =    -0.00006951   -0.00030836    0.02073343
     atom   12 type  2   force =     0.00066421    0.00094845   -0.02089940
     atom   13 type  1   force =     0.00000000    0.00000000    0.00000000
     atom   14 type  2   force =    -0.00002910   -0.00018277    0.02136553
     atom   15 type  2   force =    -0.00009695    0.00047398   -0.02057417
     atom   16 type  1   force =     0.00000000    0.00000000    0.00000000
     atom   17 type  2   force =     0.00043124    0.00096421    0.02067325
     atom   18 type  2   force =    -0.00022315   -0.00030076   -0.02082362
     atom   19 type  1   force =     0.00000000    0.00000000    0.00000000
     atom   20 type  2   force =    -0.00007945    0.00055998   -0.02121362
     atom   21 type  1   force =     0.00000000    0.00000000    0.00000000
     atom   22 type  2   force =     0.00019203   -0.00019373    0.02092478
     atom   23 type  2   force =    -0.00060719    0.00097850   -0.02086548
     atom   24 type  1   force =     0.00000000    0.00000000    0.00000000
     atom   25 type  2   force =     0.00033466   -0.00019144   -0.00987598
     atom   26 type  2   force =    -0.00008165    0.00047842   -0.02134234
     atom   27 type  1   force =     0.00000000    0.00000000    0.00000000
     atom   28 type  2   force =     0.00002027    0.00085575    0.02146775
     atom   29 type  2   force =     0.00008415    0.00027986   -0.02079753
     atom   30 type  1   force =     0.00000000    0.00000000    0.00000000
     atom   31 type  2   force =     0.00039263    0.00029715    0.02096313
     atom   32 type  2   force =    -0.00066041    0.00074475   -0.02102739
     atom   33 type  1   force =     0.00000000    0.00000000    0.00000000
     atom   34 type  2   force =    -0.00009471    0.00030547    0.02160212
     atom   35 type  2   force =    -0.00006694    0.00073965   -0.02088347
     atom   36 type  3   force =    -0.00023091   -0.00006510    0.02461609
     The Hubbard contrib.    to forces
     atom    1 type  1   force =     0.00000000    0.00000000    0.00000000
     atom    2 type  2   force =     0.00000000    0.00000000    0.00000000
     atom    3 type  2   force =     0.00000000    0.00000000    0.00000000
     atom    4 type  1   force =     0.00000000    0.00000000    0.00000000
     atom    5 type  2   force =     0.00000000    0.00000000    0.00000000
     atom    6 type  2   force =     0.00000000    0.00000000    0.00000000
     atom    7 type  1   force =     0.00000000    0.00000000    0.00000000
     atom    8 type  2   force =     0.00000000    0.00000000    0.00000000
     atom    9 type  2   force =     0.00000000    0.00000000    0.00000000
     atom   10 type  1   force =     0.00000000    0.00000000    0.00000000
     atom   11 type  2   force =     0.00000000    0.00000000    0.00000000
     atom   12 type  2   force =     0.00000000    0.00000000    0.00000000
     atom   13 type  1   force =     0.00000000    0.00000000    0.00000000
     atom   14 type  2   force =     0.00000000    0.00000000    0.00000000
     atom   15 type  2   force =     0.00000000    0.00000000    0.00000000
     atom   16 type  1   force =     0.00000000    0.00000000    0.00000000
     atom   17 type  2   force =     0.00000000    0.00000000    0.00000000
     atom   18 type  2   force =     0.00000000    0.00000000    0.00000000
     atom   19 type  1   force =     0.00000000    0.00000000    0.00000000
     atom   20 type  2   force =     0.00000000    0.00000000    0.00000000
     atom   21 type  1   force =     0.00000000    0.00000000    0.00000000
     atom   22 type  2   force =     0.00000000    0.00000000    0.00000000
     atom   23 type  2   force =     0.00000000    0.00000000    0.00000000
     atom   24 type  1   force =     0.00000000    0.00000000    0.00000000
     atom   25 type  2   force =     0.00000000    0.00000000    0.00000000
     atom   26 type  2   force =     0.00000000    0.00000000    0.00000000
     atom   27 type  1   force =     0.00000000    0.00000000    0.00000000
     atom   28 type  2   force =     0.00000000    0.00000000    0.00000000
     atom   29 type  2   force =     0.00000000    0.00000000    0.00000000
     atom   30 type  1   force =     0.00000000    0.00000000    0.00000000
     atom   31 type  2   force =     0.00000000    0.00000000    0.00000000
     atom   32 type  2   force =     0.00000000    0.00000000    0.00000000
     atom   33 type  1   force =     0.00000000    0.00000000    0.00000000
     atom   34 type  2   force =     0.00000000    0.00000000    0.00000000
     atom   35 type  2   force =     0.00000000    0.00000000    0.00000000
     atom   36 type  3   force =     0.00000000    0.00000000    0.00000000
     The SCF correction term to forces
     atom    1 type  1   force =     0.00004351    0.00000285    0.00000166
     atom    2 type  2   force =     0.00001613    0.00001046   -0.00000270
     atom    3 type  2   force =     0.00000034   -0.00000573    0.00000753
     atom    4 type  1   force =     0.00001394   -0.00000824   -0.00000155
     atom    5 type  2   force =     0.00001992   -0.00000150    0.00000543
     atom    6 type  2   force =     0.00001154    0.00000927   -0.00000679
     atom    7 type  1   force =     0.00003053   -0.00000609   -0.00006169
     atom    8 type  2   force =     0.00000902   -0.00001547   -0.00000247
     atom    9 type  2   force =    -0.00000622    0.00000009   -0.00001285
     atom   10 type  1   force =     0.00000340    0.00000899   -0.00001899
     atom   11 type  2   force =     0.00002134    0.00000858   -0.00001056
     atom   12 type  2   force =     0.00000732   -0.00000494   -0.00002083
     atom   13 type  1   force =    -0.00000876    0.00001343   -0.00001549
     atom   14 type  2   force =     0.00002133    0.00000599   -0.00000178
     atom   15 type  2   force =     0.00001217   -0.00001269   -0.00001702
     atom   16 type  1   force =     0.00001109    0.00001764   -0.00000904
     atom   17 type  2   force =    -0.00000997    0.00001316    0.00000263
     atom   18 type  2   force =    -0.00000318    0.00001367   -0.00001091
     atom   19 type  1   force =    -0.00000152   -0.00001608   -0.00005495
     atom   20 type  2   force =     0.00000320    0.00000826   -0.00003435
     atom   21 type  1   force =     0.00002151   -0.00000383   -0.00004905
     atom   22 type  2   force =    -0.00000951   -0.00000207   -0.00000575
     atom   23 type  2   force =     0.00000383   -0.00000586   -0.00002470
     atom   24 type  1   force =    -0.00003613    0.00000788    0.00002800
     atom   25 type  2   force =    -0.00003336    0.00000390   -0.00000039
     atom   26 type  2   force =    -0.00001440   -0.00000388   -0.00000397
     atom   27 type  1   force =    -0.00003731    0.00000951   -0.00000057
     atom   28 type  2   force =    -0.00000721   -0.00000572   -0.00000255
     atom   29 type  2   force =    -0.00000547    0.00000546    0.00001324
     atom   30 type  1   force =    -0.00000725   -0.00001044   -0.00001478
     atom   31 type  2   force =    -0.00001483   -0.00001468   -0.00000189
     atom   32 type  2   force =    -0.00000144   -0.00000335   -0.00001074
     atom   33 type  1   force =    -0.00003484   -0.00001270   -0.00003099
     atom   34 type  2   force =    -0.00000801    0.00000691   -0.00000087
     atom   35 type  2   force =    -0.00000824   -0.00000118   -0.00000103
     atom   36 type  3   force =    -0.00006195   -0.00000207    0.00001754

     Total force =     0.006632     Total SCF correction =     0.000185
     Energy error            =      9.7E-05 Ry
     Gradient error          =      2.6E-03 Ry/Bohr

     bfgs converged in  23 scf cycles and  22 bfgs steps
     (criteria: energy <  1.0E-04 Ry, force <  1.0E-02 Ry/Bohr)

     End of BFGS Geometry Optimization

     Final energy             =   -2246.4498262293 Ry

     File ./MoS2-V-O.bfgs deleted, as requested
Begin final coordinates

ATOMIC_POSITIONS (angstrom)
Mo            6.5986605531        1.7220922026        2.7609841705
S             8.1724369429        0.8267342905        4.3669287575
S             8.1686118612        0.8132053992        1.1692727868
Mo            8.1626625509        4.4758946248        2.7176185701
S             6.5623882859        3.6367267393        4.3113842173
S             6.5925270984        3.5377596991        1.1199964642
Mo            6.5526322761        7.1583414600        2.6689983596
S             8.1130472815        6.2834725812        4.3085596490
S             8.1769129207        6.3035945556        1.1174209527
Mo            8.1777077172        9.9134284860        2.7675487611
S             6.5582942270        8.9269452916        4.3197374959
S             6.6273559178        9.0062056875        1.1261052910
Mo            3.4854311675        1.7546061027        2.7538507804
S             5.0256612495        0.7925290551        4.3457966095
S             5.0357220557        0.8145402773        1.1620871527
Mo            5.0336107521        4.5206580599        2.6622231901
S             3.5118191743        3.6466336101        4.3202119241
S             3.4748542000        3.5575332669        1.1107869713
Mo            3.5181052830        7.1629324157        2.6722918261
S             5.0320877940        6.2904395469        1.0451837291
Mo            5.0300206921        9.8866287246        2.7257025883
S             3.5082871051        8.9259122211        4.3248429219
S             3.4491122494        8.9979193067        1.1156224916
Mo            0.2778853700        1.7449688291        2.7557633060
S             1.8871570303        0.8223905400        4.2780170192
S             1.8857252098        0.8236229624        1.1910703975
Mo            1.9057394270        4.4725218567        2.7224178766
S             0.3024669481        3.5900717253        4.3290386350
S             0.3034647011        3.5584362667        1.1430654589
Mo            0.2981323881        7.1952055146        2.7447149773
S             1.9475249096        6.2853851644        4.3083090239
S             1.8878393819        6.3067691128        1.1229507181
Mo            1.8892002831        9.8829033691        2.7562999656
S             0.3063052451        9.0028652604        4.3662286195
S             0.2922972267        9.0139240177        1.1652952825
O             1.8729128689       11.7560481869        5.7784345960
End final coordinates

     Writing all to output data dir ./MoS2-V-O.save/

     General routines

     Parallel routines

   This run was terminated on:  23:48: 9   1Nov2023

   JOB DONE.