     Program PWSCF v.7.2 starts on  1Nov2023 at 13:25: 7

     Waiting for input...
     Reading input from standard input
Warning: card &CELL ignored
Warning: card CELL_DYNAMICS = 'BFGS', ignored
Warning: card CELL_DOFREE = '2DXY' ignored
Warning: card / ignored

     Current dimensions of program PWSCF are:
     Max number of different atomic species (ntypx) = 10
     Max number of k-points (npk) =  40000
     Max angular momentum in pseudopotentials (lmaxx) =  4
     file O.pbe-n-kjpaw_psl.0.1.UPF: wavefunction(s)  2P renormalized

     IMPORTANT: XC functional enforced from input :
     Exchange-correlation= RVV10
                           (   1   4  13   4  26   0   0)
     Any further DFT definition will be discarded
     Please, verify this is what you really want

     gamma-point specific algorithms are used
     signal trapping enabled: kill the code with -SIGUSR1 to stop cleanly the simulation

     R & G space division:  proc/nbgrp/npool/nimage =      48
     Subspace diagonalization in iterative solution of the eigenvalue problem:
     one sub-group per band group will be used

     Using Slab Decomposition

     bravais-lattice index     =            0
     lattice parameter (alat)  =      17.8707  a.u.
     unit-cell volume          =   17436.2743 (a.u.)^3
     number of atoms/cell      =           36
     number of atomic types    =            3
     number of electrons       =       312.00
     number of Kohn-Sham states=          187
     kinetic-energy cutoff     =      80.0000  Ry
     charge density cutoff     =     650.0000  Ry
     scf convergence threshold =      1.0E-06
     mixing beta               =       0.7000
     number of iterations used =            8  local-TF  mixing
     energy convergence thresh.=      1.0E-04
     force convergence thresh. =      1.0E-02
     Exchange-correlation= RVV10
                           (   1   4  13   4  26   0   0)
     nstep                     =          200

     celldm(1)=  17.870686  celldm(2)=   0.000000  celldm(3)=   0.000000
     celldm(4)=   0.000000  celldm(5)=   0.000000  celldm(6)=   0.000000

     crystal axes: (cart. coord. in units of alat)
               a(1) = (   1.000000   0.000000   0.000000 )
               a(2) = (   0.000000   1.155671   0.000000 )
               a(3) = (   0.000000   0.000000   2.643601 )

     reciprocal axes: (cart. coord. in units 2 pi/alat)
               b(1) = (  1.000000  0.000000  0.000000 )
               b(2) = (  0.000000  0.865298  0.000000 )
               b(3) = (  0.000000  0.000000  0.378272 )

     PseudoPot. # 1 for Mo read from file:
     ../pseudo/Mo_ONCV_PBE-1.0.oncvpsp.upf
     MD5 check sum: 1b5d28e075c9ccadda658a603575cd1f
     Pseudo is Norm-conserving, Zval = 14.0
     Generated using ONCVPSP code by D. R. Hamann
     Using radial grid of 1526 points,  6 beta functions with:
                l(1) =   0
                l(2) =   0
                l(3) =   1
                l(4) =   1
                l(5) =   2
                l(6) =   2

     PseudoPot. # 2 for S  read from file:
     ../pseudo/s_pbe_v1.4.uspp.F.UPF
     MD5 check sum: 88d86576ff6df21479756cfb9bdac1df
     Pseudo is Ultrasoft + core correction, Zval =  6.0
     Generated by new atomic code, or converted to UPF format
     Using radial grid of  907 points,  6 beta functions with:
                l(1) =   0
                l(2) =   0
                l(3) =   1
                l(4) =   1
                l(5) =   2
                l(6) =   2
     Q(r) pseudized with  8 coefficients,  rinner =    1.300   1.300   1.300
                                                       1.300   1.300

     PseudoPot. # 3 for O  read from file:
     ../pseudo/O.pbe-n-kjpaw_psl.0.1.UPF
     MD5 check sum: 0234752ac141de4415c5fc33072bef88
     Pseudo is Projector augmented-wave + core cor, Zval =  6.0
     Generated using "atomic" code by A. Dal Corso  v.5.0.99 svn rev. 10869
     Shape of augmentation charge: BESSEL
     Using radial grid of 1095 points,  4 beta functions with:
                l(1) =   0
                l(2) =   0
                l(3) =   1
                l(4) =   1
     Q(r) pseudized with 0 coefficients

     atomic species   valence    mass     pseudopotential
        Mo            14.00    95.94000     Mo( 1.00)
        S              6.00    32.06500     S ( 1.00)
        O              6.00    15.99940     O ( 1.00)

     No symmetry found

   Cartesian axes

     site n.     atom                  positions (alat units)
         1           Mo  tau(   1) = (   0.6952221   0.1890506   0.2985846  )
         2           S   tau(   2) = (   0.8646417   0.0856217   0.4689279  )
         3           S   tau(   3) = (   0.8663890   0.0857843   0.1351291  )
         4           Mo  tau(   4) = (   0.8560186   0.4753274   0.2873942  )
         5           S   tau(   5) = (   0.6873294   0.3936244   0.4596353  )
         6           S   tau(   6) = (   0.6929804   0.3713468   0.1185692  )
         7           Mo  tau(   7) = (   0.6862796   0.7633098   0.2825370  )
         8           S   tau(   8) = (   0.8545980   0.6708292   0.4486168  )
         9           S   tau(   9) = (   0.8545123   0.6666874   0.1146125  )
        10           Mo  tau(  10) = (   0.8629403   1.0471007   0.3006803  )
        11           S   tau(  11) = (   0.6868280   0.9456650   0.4634891  )
        12           S   tau(  12) = (   0.6998113   0.9568511   0.1205389  )
        13           Mo  tau(  13) = (   0.3618216   0.1847309   0.2935964  )
        14           S   tau(  14) = (   0.5260962   0.0863870   0.4600448  )
        15           S   tau(  15) = (   0.5348379   0.0894875   0.1297123  )
        16           Mo  tau(  16) = (   0.5265817   0.4772436   0.2784130  )
        17           S   tau(  17) = (   0.3624753   0.3882513   0.4525556  )
        18           S   tau(  18) = (   0.3635411   0.3752055   0.1119148  )
        19           Mo  tau(  19) = (   0.3652268   0.7630864   0.2781795  )
        20           S   tau(  20) = (   0.5269494   0.6690381   0.1096838  )
        21           Mo  tau(  21) = (   0.5300192   1.0470394   0.2900995  )
        22           S   tau(  22) = (   0.3670346   0.9457522   0.4574073  )
        23           S   tau(  23) = (   0.3604225   0.9585725   0.1159032  )
        24           Mo  tau(  24) = (   0.0313099   0.1847895   0.3013130  )
        25           S   tau(  25) = (   0.1956761   0.0838230   0.4650863  )
        26           S   tau(  26) = (   0.1967693   0.0903508   0.1278874  )
        27           Mo  tau(  27) = (   0.1967578   0.4753919   0.2813011  )
        28           S   tau(  28) = (   0.0287851   0.3864324   0.4586755  )
        29           S   tau(  29) = (   0.0244514   0.3729871   0.1239344  )
        30           Mo  tau(  30) = (   0.0286728   0.7631204   0.2856894  )
        31           S   tau(  31) = (   0.2011512   0.6675435   0.4465001  )
        32           S   tau(  32) = (   0.1969214   0.6672839   0.1104564  )
        33           Mo  tau(  33) = (   0.1950294   1.0511147   0.2932237  )
        34           S   tau(  34) = (   0.0312912   0.9612169   0.4667423  )
        35           S   tau(  35) = (   0.0292670   0.9563028   0.1216485  )
        36           O   tau(  36) = (   0.0000000   0.2568157   0.5650415  )

     number of k points=     1  Gaussian smearing, width (Ry)=  0.0100
                       cart. coord. in units 2pi/alat
        k(    1) = (   0.0000000   0.0000000   0.0000000), wk =   2.0000000

     Initial potential from superposition of free atoms

     starting charge     311.9873, renormalised to     312.0000

     negative rho (up, down):  2.747E-04 0.000E+00

Carrying out rVV10 run using the following parameters:
Nqs =      20    Nr_points =    1024   r_max =   100.000
b_value =  6.30000    beta =  0.00901
     q_mesh =  0.00010000  0.00030000  0.00058939  0.00100810
               0.00161396  0.00249058  0.00375900  0.00559430
               0.00824984  0.01209221  0.01765183  0.02569619
               0.03733578  0.05417739  0.07854596  0.11380545
               0.16482331  0.23864234  0.34545298  0.50000000

Gradients computed in Reciprocal space

     Starting wfcs are  216 randomized atomic wfcs
     Checking if some PAW data can be deallocated...

     Self-consistent Calculation

     iteration #  1     ecut=    80.00 Ry     beta= 0.70
     Davidson diagonalization with overlap
     ethr =  1.00E-02,  avg # of iterations =  2.0

     Threshold (ethr) on eigenvalues was too large:
     Diagonalizing with lowered threshold

     Davidson diagonalization with overlap
     ethr =  4.45E-04,  avg # of iterations =  4.0

[...]

     total energy              =   -2246.22352680 Ry
     estimated scf accuracy    <       1.63216501 Ry

[...]

     iteration #  4     ecut=    80.00 Ry     beta= 0.70
     Davidson diagonalization with overlap
     c_bands:  1 eigenvalues not converged
     ethr =  7.44E-05,  avg # of iterations = 20.0

[...]

     End of self-consistent calculation

          k = 0.0000 0.0000 0.0000 (105382 PWs)   bands (ev):

   -63.0414 -62.9868 -62.9691 -62.9301 -62.9206 -62.9037 -62.8903 -62.8850
   -62.8773 -62.8718 -62.8036 -62.7875 -37.3403 -37.2887 -37.2687 -37.2617
   -37.2325 -37.2266 -37.1970 -37.1881 -37.1706 -37.1535 -37.1427 -37.1310
   -37.1215 -37.1099 -37.0983 -37.0933 -37.0808 -37.0738 -37.0685 -37.0585
   -37.0467 -37.0356 -37.0285 -37.0136 -37.0110 -37.0019 -36.9961 -36.9854
   -36.9827 -36.9565 -36.9246 -36.9098 -36.8931 -36.8493 -36.8434 -36.8016
   -21.6324 -15.9913 -15.2836 -15.2029 -15.0391 -14.9121 -14.8325 -14.6449
   -14.5675 -14.5451 -14.4784 -14.4351 -14.4109 -14.3652 -14.2918 -14.2153
   -14.2063 -14.1774 -14.0988 -14.0212 -13.9360 -13.8912 -13.8736 -13.7231
    -8.1269  -7.8326  -7.7119  -7.5237  -7.4243  -7.3457  -7.2734  -7.2328
    -7.2150  -7.0146  -6.8958  -6.8774  -6.8427  -6.7452  -6.6669  -6.5768
    -6.5422  -6.5210  -6.3630  -6.3175  -6.1612  -6.1370  -5.9583  -5.9367
    -5.9110  -5.8144  -5.7856  -5.7548  -5.7537  -5.7263  -5.6942  -5.6323
    -5.5387  -5.4785  -5.4689  -5.3235  -5.2822  -5.1939  -5.1492  -5.0763
    -5.0540  -5.0449  -4.8967  -4.8523  -4.7594  -4.6062  -4.4714  -4.4241
    -4.3930  -4.3560  -4.1926  -4.1620  -4.0763  -3.9913  -3.8670  -3.8386
    -3.8080  -3.7640  -3.7260  -3.6806  -3.6260  -3.5930  -3.5538  -3.5304
    -3.4803  -3.4379  -3.3163  -3.2250  -3.1797  -3.1133  -2.9402  -2.9052
    -2.8526  -2.7905  -2.7803  -2.7351  -2.7063  -2.6534  -2.5438  -2.4564
    -2.0979  -2.0056  -1.9614  -1.3431  -0.9687  -0.9136  -0.8070  -0.2382
    -0.1983  -0.1518  -0.1100   0.0318   0.1040   0.1294   0.1777   0.2053
     0.2352   0.2537   0.3243   0.3966   0.4500   0.4944   0.5327   0.5452
     0.6124   0.6664   0.7019   0.7101   0.7323   0.8158   0.8408   0.8997
     1.0094   1.0313   1.0866

     the Fermi energy is    -1.1602 ev

!    total energy              =   -2246.24727682 Ry
     estimated scf accuracy    <       0.00000098 Ry
     smearing contrib. (-TS)   =      -0.00192103 Ry
     internal energy E=F+TS    =   -2246.24535578 Ry

     The total energy is F=E-TS. E is the sum of the following terms:
[...]
     atom    3 type  2   force =    -0.02801691   -0.15749345  -38.37571743
     atom    4 type  1   force =    -1.05669818    0.84266540   -3.55968320
     atom    5 type  2   force =    -1.78995377    1.11026308   37.61574327
     atom    6 type  2   force =     0.15199259   -0.35716138  -38.88035968
     atom    7 type  1   force =    -3.18872505   -1.47911516    1.79817290
     atom    8 type  2   force =    -1.75461594    1.15205731   37.67105818
     atom    9 type  2   force =     0.31131386    0.19419080  -38.72847781
     atom   10 type  1   force =    -0.61342012   -0.95687232    1.92683803
     atom   11 type  2   force =    -0.58776809   -1.39004529   38.45079868
     atom   12 type  2   force =     0.13356823    0.26474796  -38.34645721
     atom   13 type  1   force =     0.69069364    0.12910009    0.80804040
     atom   14 type  2   force =     0.00152805   -0.28938095   38.28674394
     atom   15 type  2   force =    -0.00937975   -0.22956222  -38.04559237
     atom   16 type  1   force =    -0.01310297    3.91854965    0.47016400
     atom   17 type  2   force =     1.76651410    1.11515901   37.63114397
     atom   18 type  2   force =    -0.16607621   -0.35008301  -38.85983856
     atom   19 type  1   force =     3.19017262   -1.50475037    2.06648651
     atom   20 type  2   force =    -0.01601517    0.10343950  -38.87883885
     atom   21 type  1   force =     0.00110229   -0.46501670    0.53516728
     atom   22 type  2   force =     0.59728985   -1.38602429   38.50123206
     atom   23 type  2   force =    -0.14391911    0.25971106  -38.27580641
     atom   24 type  1   force =     0.03499492   -0.60638420   -1.90157630
     atom   25 type  2   force =     0.79470665   -0.85807094   38.27050669
     atom   26 type  2   force =     0.03924786   -0.16352741  -38.33631559
     atom   27 type  1   force =     1.06722915    0.83250097   -3.43932101
     atom   28 type  2   force =     0.04904230    0.31398789   27.84842493
     atom   29 type  2   force =     0.01483408   -0.12714553  -38.17714822
     atom   30 type  1   force =     0.00980080    0.29151024    0.65935098
     atom   31 type  2   force =     1.74161445    1.13428993   37.70573304
     atom   32 type  2   force =    -0.29519916    0.19111778  -38.69175691
     atom   33 type  1   force =     0.61635327   -0.93848749    2.23263254
     atom   34 type  2   force =    -0.01196998   -0.44144860   38.59590877
     atom   35 type  2   force =     0.01025431    0.12386857  -37.85892689
     atom   36 type  3   force =    -0.02486157    0.46792689   50.30704243
     The local contribution  to forces
     atom    1 type  1   force =     0.73066775   -0.16295519   -0.72732727
     atom    2 type  2   force =     0.79176054    0.89271400  -37.99175997
     atom    3 type  2   force =     0.03021734    0.16625843   38.13012766
     atom    4 type  1   force =     1.04759278   -0.84003015    3.53870539
     atom    5 type  2   force =     1.78622898   -1.09196748  -37.37822724
     atom    6 type  2   force =    -0.15169317    0.36008293   38.63764529
     atom    7 type  1   force =     3.20367146    1.47508877   -1.77834887
     atom    8 type  2   force =     1.74814004   -1.15429963  -37.42355904
     atom    9 type  2   force =    -0.30533851   -0.18198695   38.48187591
     atom   10 type  1   force =     0.61572816    0.95197403   -1.92963135
     atom   11 type  2   force =     0.58102137    1.39183448  -38.20993072
     atom   12 type  2   force =    -0.12574689   -0.25166207   38.10328443
     atom   13 type  1   force =    -0.69218214   -0.15371202   -0.80130364
     atom   14 type  2   force =    -0.00140166    0.29788487  -38.03776045
     atom   15 type  2   force =     0.00926206    0.23792273   37.80307566
     atom   16 type  1   force =     0.01307139   -3.95203905   -0.44798750
     atom   17 type  2   force =    -1.76255628   -1.09683847  -37.39364059
     atom   18 type  2   force =     0.16570385    0.35317105   38.61704245
     atom   19 type  1   force =    -3.20531044    1.50028849   -2.04656695
     atom   20 type  2   force =     0.01580344   -0.08771453   38.63359060
     atom   21 type  1   force =    -0.00088420    0.43582579   -0.53721293
     atom   22 type  2   force =    -0.59026246    1.38769783  -38.26031202
     atom   23 type  2   force =     0.13585227   -0.24648678   38.03228804
     atom   24 type  1   force =    -0.03460242    0.58633421    1.88769048
     atom   25 type  2   force =    -0.79421849    0.86701010  -38.02134946
     atom   26 type  2   force =    -0.04133309    0.17210050   38.09084867
     atom   27 type  1   force =    -1.05918248   -0.83011244    3.41942088
     atom   28 type  2   force =    -0.04822296   -0.32112186  -28.13452402
     atom   29 type  2   force =    -0.01472620    0.13542807   37.92135804
     atom   30 type  1   force =    -0.00945286   -0.30877809   -0.66325510
     atom   31 type  2   force =    -1.73531406   -1.13669198  -37.45836389
     atom   32 type  2   force =     0.28943537   -0.17889571   38.44519116
     atom   33 type  1   force =    -0.61857298    0.93426798   -2.23576274
     atom   34 type  2   force =     0.01160817    0.45053096  -38.34133659
     atom   35 type  2   force =    -0.00999565   -0.11004232   37.61266148
     atom   36 type  3   force =     0.01431648   -0.43894043  -48.00726350
     The core correction contribution to forces
     atom    1 type  1   force =     0.00000000    0.00000000    0.00000000
     atom    2 type  2   force =    -0.00004927    0.00048851    0.02119078
     atom    3 type  2   force =     0.00009946    0.00040887   -0.02088118
     atom    4 type  1   force =     0.00000000    0.00000000    0.00000000
     atom    5 type  2   force =    -0.00029250    0.00074733    0.02076880
     atom    6 type  2   force =     0.00017542   -0.00032212   -0.02075890
     atom    7 type  1   force =     0.00000000    0.00000000    0.00000000
     atom    8 type  2   force =    -0.00032904    0.00015611    0.02119615
     atom    9 type  2   force =     0.00063135    0.00081750   -0.02093372
     atom   10 type  1   force =     0.00000000    0.00000000    0.00000000
     atom   11 type  2   force =    -0.00014153   -0.00014856    0.02077187
     atom   12 type  2   force =     0.00064530    0.00098052   -0.02089885
     atom   13 type  1   force =     0.00000000    0.00000000    0.00000000
     atom   14 type  2   force =     0.00000526    0.00013547    0.02098537
     atom   15 type  2   force =    -0.00001035    0.00031019   -0.02074553
     atom   16 type  1   force =     0.00000000    0.00000000    0.00000000
     atom   17 type  2   force =     0.00032729    0.00072905    0.02075674
     atom   18 type  2   force =    -0.00018242   -0.00035138   -0.02075911
     atom   19 type  1   force =     0.00000000    0.00000000    0.00000000
     atom   20 type  2   force =    -0.00003648    0.00072216   -0.02126672
     atom   21 type  1   force =     0.00000000    0.00000000    0.00000000
     atom   22 type  2   force =     0.00018597   -0.00013024    0.02076928
     atom   23 type  2   force =    -0.00069430    0.00098624   -0.02088547
     atom   24 type  1   force =     0.00000000    0.00000000    0.00000000
     atom   25 type  2   force =     0.00002636    0.00050942    0.02119450
     atom   26 type  2   force =    -0.00009344    0.00037731   -0.02088369
     atom   27 type  1   force =     0.00000000    0.00000000    0.00000000
     atom   28 type  2   force =     0.00004409   -0.00022268   -0.00983899
     atom   29 type  2   force =     0.00000378    0.00029286   -0.02115115
     atom   30 type  1   force =     0.00000000    0.00000000    0.00000000
     atom   31 type  2   force =     0.00028319    0.00017180    0.02120367
     atom   32 type  2   force =    -0.00061650    0.00084745   -0.02094226
     atom   33 type  1   force =     0.00000000    0.00000000    0.00000000
     atom   34 type  2   force =    -0.00004069    0.00038068    0.02129880
     atom   35 type  2   force =     0.00005064    0.00080474   -0.02093778
     atom   36 type  3   force =    -0.00012078    0.00029135    0.02464967
     The Hubbard contrib.    to forces
     atom    1 type  1   force =     0.00000000    0.00000000    0.00000000
     atom    2 type  2   force =     0.00000000    0.00000000    0.00000000
     atom    3 type  2   force =     0.00000000    0.00000000    0.00000000
     atom    4 type  1   force =     0.00000000    0.00000000    0.00000000
     atom    5 type  2   force =     0.00000000    0.00000000    0.00000000
     atom    6 type  2   force =     0.00000000    0.00000000    0.00000000
     atom    7 type  1   force =     0.00000000    0.00000000    0.00000000
     atom    8 type  2   force =     0.00000000    0.00000000    0.00000000
     atom    9 type  2   force =     0.00000000    0.00000000    0.00000000
     atom   10 type  1   force =     0.00000000    0.00000000    0.00000000
     atom   11 type  2   force =     0.00000000    0.00000000    0.00000000
     atom   12 type  2   force =     0.00000000    0.00000000    0.00000000
     atom   13 type  1   force =     0.00000000    0.00000000    0.00000000
     atom   14 type  2   force =     0.00000000    0.00000000    0.00000000
     atom   15 type  2   force =     0.00000000    0.00000000    0.00000000
     atom   16 type  1   force =     0.00000000    0.00000000    0.00000000
     atom   17 type  2   force =     0.00000000    0.00000000    0.00000000
     atom   18 type  2   force =     0.00000000    0.00000000    0.00000000
     atom   19 type  1   force =     0.00000000    0.00000000    0.00000000
     atom   20 type  2   force =     0.00000000    0.00000000    0.00000000
     atom   21 type  1   force =     0.00000000    0.00000000    0.00000000
     atom   22 type  2   force =     0.00000000    0.00000000    0.00000000
     atom   23 type  2   force =     0.00000000    0.00000000    0.00000000
     atom   24 type  1   force =     0.00000000    0.00000000    0.00000000
     atom   25 type  2   force =     0.00000000    0.00000000    0.00000000
     atom   26 type  2   force =     0.00000000    0.00000000    0.00000000
     atom   27 type  1   force =     0.00000000    0.00000000    0.00000000
     atom   28 type  2   force =     0.00000000    0.00000000    0.00000000
     atom   29 type  2   force =     0.00000000    0.00000000    0.00000000
     atom   30 type  1   force =     0.00000000    0.00000000    0.00000000
     atom   31 type  2   force =     0.00000000    0.00000000    0.00000000
     atom   32 type  2   force =     0.00000000    0.00000000    0.00000000
     atom   33 type  1   force =     0.00000000    0.00000000    0.00000000
     atom   34 type  2   force =     0.00000000    0.00000000    0.00000000
     atom   35 type  2   force =     0.00000000    0.00000000    0.00000000
     atom   36 type  3   force =     0.00000000    0.00000000    0.00000000
     The SCF correction term to forces
     atom    1 type  1   force =     0.00003046   -0.00001158    0.00001341
     atom    2 type  2   force =     0.00000892    0.00001010    0.00001002
     atom    3 type  2   force =     0.00000579    0.00000321   -0.00000234
     atom    4 type  1   force =     0.00000311   -0.00003279    0.00003910
     atom    5 type  2   force =     0.00000393    0.00000199    0.00001039
     atom    6 type  2   force =     0.00000122   -0.00000494    0.00000858
     atom    7 type  1   force =    -0.00001800    0.00000482   -0.00000581
     atom    8 type  2   force =    -0.00000989   -0.00001225   -0.00000135
     atom    9 type  2   force =    -0.00000711    0.00000721    0.00000251
     atom   10 type  1   force =    -0.00001231    0.00002310   -0.00000813
     atom   11 type  2   force =     0.00000078    0.00000312   -0.00000980
     atom   12 type  2   force =    -0.00000017    0.00001256   -0.00000509
     atom   13 type  1   force =    -0.00001988   -0.00001481    0.00000084
     atom   14 type  2   force =     0.00000292    0.00000390   -0.00000053
     atom   15 type  2   force =    -0.00000355   -0.00001772   -0.00000624
     atom   16 type  1   force =     0.00000877    0.00000616    0.00002564
     atom   17 type  2   force =    -0.00000333    0.00000648   -0.00000030
     atom   18 type  2   force =    -0.00000625   -0.00000610    0.00001440
     atom   19 type  1   force =     0.00001604    0.00000215   -0.00000398
     atom   20 type  2   force =     0.00000494    0.00000573    0.00001363
     atom   21 type  1   force =    -0.00000435    0.00000915   -0.00002591
     atom   22 type  2   force =     0.00000430    0.00000397   -0.00001145
     atom   23 type  2   force =     0.00000590    0.00001413   -0.00000450
     atom   24 type  1   force =    -0.00000760   -0.00000257    0.00001542
     atom   25 type  2   force =    -0.00000708    0.00001082    0.00000074
     atom   26 type  2   force =    -0.00000686   -0.00000281    0.00000318
     atom   27 type  1   force =    -0.00000836   -0.00003741    0.00002157
     atom   28 type  2   force =    -0.00001039   -0.00003153   -0.00000198
     atom   29 type  2   force =     0.00000307   -0.00001560    0.00002158
     atom   30 type  1   force =    -0.00000528    0.00000156   -0.00000915
     atom   31 type  2   force =     0.00000747   -0.00001688   -0.00000625
     atom   32 type  2   force =     0.00000542    0.00000220    0.00000761
     atom   33 type  1   force =    -0.00000813    0.00003159   -0.00001017
     atom   34 type  2   force =     0.00000287    0.00001458   -0.00000258
     atom   35 type  2   force =    -0.00000250    0.00001879   -0.00001020
     atom   36 type  3   force =    -0.00003843   -0.00008065   -0.00000021

     Total force =     0.006717     Total SCF correction =     0.000157
     Energy error            =      9.0E-05 Ry
     Gradient error          =      2.2E-03 Ry/Bohr

     bfgs converged in  23 scf cycles and  22 bfgs steps
     (criteria: energy <  1.0E-04 Ry, force <  1.0E-02 Ry/Bohr)

     End of BFGS Geometry Optimization

     Final energy             =   -2246.4527939127 Ry

     File ./MoS2-V-O.bfgs deleted, as requested
Begin final coordinates

ATOMIC_POSITIONS (angstrom)
Mo            6.5587471276        1.7211659894        2.7520072927
S             8.1299176149        0.8197406116        4.3670967480
S             8.1237994144        0.7982142378        1.1610753049
Mo            8.0887966725        4.4865313768        2.6972838247
S             6.5221678784        3.6284427910        4.3021161614
S             6.5406086880        3.5224975712        1.0986843980
Mo            6.5134419368        7.1576596489        2.6737599295
S             8.0738133905        6.2738235054        4.3105251258
S             8.1284881443        6.3155567191        1.1035847982
Mo            8.1262850411        9.9066636888        2.7696504356
S             6.5176011679        8.9207702812        4.3312048464
S             6.5804539896        9.0001522716        1.1301146606
Mo            3.4191061663        1.7213149619        2.7533151347
S             4.9892781289        0.7844623851        4.3412395774
S             4.9883046285        0.7989683352        1.1620779663
Mo            4.9886693288        4.4880058713        2.6559750153
S             3.4565085353        3.6278360077        4.3027504048
S             3.4359645704        3.5202962193        1.1001707910
Mo            3.4635257982        7.1578795086        2.6786977231
S             4.9862811629        6.2810624105        1.0581263950
Mo            4.9885221989        9.8721906771        2.7345680371
S             3.4617231033        8.9222539060        4.3352952491
S             3.3936583176        9.0000092519        1.1362759969
Mo            0.2596997375        1.6759582977        2.7490038658
S             1.8454483442        0.8211669668        4.3702780696
S             1.8535197899        0.7964737753        1.1632533409
Mo            1.8887050276        4.4871057403        2.6990677746
S             0.2579854061        3.5751515135        4.2203130943
S             0.2609298724        3.5365000492        1.1631544146
Mo            0.2592704963        7.1804919914        2.7424141423
S             1.8998603013        6.2752207013        4.3137096952
S             1.8492568383        6.3169232428        1.1059880641
Mo            1.8502508879        9.9064797248        2.7751481923
S             0.2577537583        8.9930242217        4.3652875580
S             0.2626162869        9.0200459010        1.1790531617
O             0.2513872600        3.5995505019        5.7180726820
End final coordinates

     Writing all to output data dir ./MoS2-V-O.save/

     General routines

     Parallel routines

   This run was terminated on:  14: 9:33   1Nov2023

   JOB DONE.