     Program PWSCF v.7.2 starts on  1Nov2023 at 12:32:22

     Waiting for input...
     Reading input from standard input
Warning: card &CELL ignored
Warning: card CELL_DYNAMICS = 'BFGS', ignored
Warning: card CELL_DOFREE = '2DXY' ignored
Warning: card / ignored

     Current dimensions of program PWSCF are:
     Max number of different atomic species (ntypx) = 10
     Max number of k-points (npk) =  40000
     Max angular momentum in pseudopotentials (lmaxx) =  4
     file O.pbe-n-kjpaw_psl.0.1.UPF: wavefunction(s)  2P renormalized

     IMPORTANT: XC functional enforced from input :
     Exchange-correlation= RVV10
                           (   1   4  13   4  26   0   0)
     Any further DFT definition will be discarded
     Please, verify this is what you really want

     gamma-point specific algorithms are used
     signal trapping enabled: kill the code with -SIGUSR1 to stop cleanly the simulation

     R & G space division:  proc/nbgrp/npool/nimage =      48
     Subspace diagonalization in iterative solution of the eigenvalue problem:
     one sub-group per band group will be used

     Using Slab Decomposition

     bravais-lattice index     =            0
     lattice parameter (alat)  =      17.8707  a.u.
     unit-cell volume          =   17436.2743 (a.u.)^3
     number of atoms/cell      =           36
     number of atomic types    =            3
     number of electrons       =       312.00
     number of Kohn-Sham states=          187
     kinetic-energy cutoff     =      80.0000  Ry
     charge density cutoff     =     650.0000  Ry
     scf convergence threshold =      1.0E-06
     mixing beta               =       0.7000
     number of iterations used =            8  local-TF  mixing
     energy convergence thresh.=      1.0E-04
     force convergence thresh. =      1.0E-02
     Exchange-correlation= RVV10
                           (   1   4  13   4  26   0   0)
     nstep                     =          200

     celldm(1)=  17.870686  celldm(2)=   0.000000  celldm(3)=   0.000000
     celldm(4)=   0.000000  celldm(5)=   0.000000  celldm(6)=   0.000000

     crystal axes: (cart. coord. in units of alat)
               a(1) = (   1.000000   0.000000   0.000000 )
               a(2) = (   0.000000   1.155671   0.000000 )
               a(3) = (   0.000000   0.000000   2.643601 )

     reciprocal axes: (cart. coord. in units 2 pi/alat)
               b(1) = (  1.000000  0.000000  0.000000 )
               b(2) = (  0.000000  0.865298  0.000000 )
               b(3) = (  0.000000  0.000000  0.378272 )

     PseudoPot. # 1 for Mo read from file:
     ../pseudo/Mo_ONCV_PBE-1.0.oncvpsp.upf
     MD5 check sum: 1b5d28e075c9ccadda658a603575cd1f
     Pseudo is Norm-conserving, Zval = 14.0
     Generated using ONCVPSP code by D. R. Hamann
     Using radial grid of 1526 points,  6 beta functions with:
                l(1) =   0
                l(2) =   0
                l(3) =   1
                l(4) =   1
                l(5) =   2
                l(6) =   2

     PseudoPot. # 2 for S  read from file:
     ../pseudo/s_pbe_v1.4.uspp.F.UPF
     MD5 check sum: 88d86576ff6df21479756cfb9bdac1df
     Pseudo is Ultrasoft + core correction, Zval =  6.0
     Generated by new atomic code, or converted to UPF format
     Using radial grid of  907 points,  6 beta functions with:
                l(1) =   0
                l(2) =   0
                l(3) =   1
                l(4) =   1
                l(5) =   2
                l(6) =   2
     Q(r) pseudized with  8 coefficients,  rinner =    1.300   1.300   1.300
                                                       1.300   1.300

     PseudoPot. # 3 for O  read from file:
     ../pseudo/O.pbe-n-kjpaw_psl.0.1.UPF
     MD5 check sum: 0234752ac141de4415c5fc33072bef88
     Pseudo is Projector augmented-wave + core cor, Zval =  6.0
     Generated using "atomic" code by A. Dal Corso  v.5.0.99 svn rev. 10869
     Shape of augmentation charge: BESSEL
     Using radial grid of 1095 points,  4 beta functions with:
                l(1) =   0
                l(2) =   0
                l(3) =   1
                l(4) =   1
     Q(r) pseudized with 0 coefficients

     atomic species   valence    mass     pseudopotential
        Mo            14.00    95.94000     Mo( 1.00)
        S              6.00    32.06500     S ( 1.00)
        O              6.00    15.99940     O ( 1.00)

     No symmetry found

   Cartesian axes

     site n.     atom                  positions (alat units)
         1           Mo  tau(   1) = (   0.6952221   0.1890506   0.2985846  )
         2           S   tau(   2) = (   0.8646417   0.0856217   0.4689279  )
         3           S   tau(   3) = (   0.8663890   0.0857843   0.1351291  )
         4           Mo  tau(   4) = (   0.8560186   0.4753274   0.2873942  )
         5           S   tau(   5) = (   0.6873294   0.3936244   0.4596353  )
         6           S   tau(   6) = (   0.6929804   0.3713468   0.1185692  )
         7           Mo  tau(   7) = (   0.6862796   0.7633098   0.2825370  )
         8           S   tau(   8) = (   0.8545980   0.6708292   0.4486168  )
         9           S   tau(   9) = (   0.8545123   0.6666874   0.1146125  )
        10           Mo  tau(  10) = (   0.8629403   1.0471007   0.3006803  )
        11           S   tau(  11) = (   0.6868280   0.9456650   0.4634891  )
        12           S   tau(  12) = (   0.6998113   0.9568511   0.1205389  )
        13           Mo  tau(  13) = (   0.3618216   0.1847309   0.2935964  )
        14           S   tau(  14) = (   0.5260962   0.0863870   0.4600448  )
        15           S   tau(  15) = (   0.5348379   0.0894875   0.1297123  )
        16           Mo  tau(  16) = (   0.5265817   0.4772436   0.2784130  )
        17           S   tau(  17) = (   0.3624753   0.3882513   0.4525556  )
        18           S   tau(  18) = (   0.3635411   0.3752055   0.1119148  )
        19           Mo  tau(  19) = (   0.3652268   0.7630864   0.2781795  )
        20           S   tau(  20) = (   0.5269494   0.6690381   0.1096838  )
        21           Mo  tau(  21) = (   0.5300192   1.0470394   0.2900995  )
        22           S   tau(  22) = (   0.3670346   0.9457522   0.4574073  )
        23           S   tau(  23) = (   0.3604225   0.9585725   0.1159032  )
        24           Mo  tau(  24) = (   0.0313099   0.1847895   0.3013130  )
        25           S   tau(  25) = (   0.1956761   0.0838230   0.4650863  )
        26           S   tau(  26) = (   0.1967693   0.0903508   0.1278874  )
        27           Mo  tau(  27) = (   0.1967578   0.4753919   0.2813011  )
        28           S   tau(  28) = (   0.0287851   0.3864324   0.4586755  )
        29           S   tau(  29) = (   0.0244514   0.3729871   0.1239344  )
        30           Mo  tau(  30) = (   0.0286728   0.7631204   0.2856894  )
        31           S   tau(  31) = (   0.2011512   0.6675435   0.4465001  )
        32           S   tau(  32) = (   0.1969214   0.6672839   0.1104564  )
        33           Mo  tau(  33) = (   0.1950294   1.0511147   0.2932237  )
        34           S   tau(  34) = (   0.0312912   0.9612169   0.4667423  )
        35           S   tau(  35) = (   0.0292670   0.9563028   0.1216485  )
        36           O   tau(  36) = (   0.7777778   0.1284079   0.5407634  )

     number of k points=     1  Gaussian smearing, width (Ry)=  0.0100
                       cart. coord. in units 2pi/alat
        k(    1) = (   0.0000000   0.0000000   0.0000000), wk =   2.0000000

     Initial potential from superposition of free atoms

     starting charge     311.9873, renormalised to     312.0000

     negative rho (up, down):  2.735E-04 0.000E+00

Carrying out rVV10 run using the following parameters:
Nqs =      20    Nr_points =    1024   r_max =   100.000
b_value =  6.30000    beta =  0.00901
     q_mesh =  0.00010000  0.00030000  0.00058939  0.00100810
               0.00161396  0.00249058  0.00375900  0.00559430
               0.00824984  0.01209221  0.01765183  0.02569619
               0.03733578  0.05417739  0.07854596  0.11380545
               0.16482331  0.23864234  0.34545298  0.50000000

Gradients computed in Reciprocal space

     Starting wfcs are  216 randomized atomic wfcs
     Checking if some PAW data can be deallocated...

     Self-consistent Calculation

     iteration #  1     ecut=    80.00 Ry     beta= 0.70
     Davidson diagonalization with overlap
     ethr =  1.00E-02,  avg # of iterations =  2.0

     Threshold (ethr) on eigenvalues was too large:
     Diagonalizing with lowered threshold

     Davidson diagonalization with overlap
     ethr =  5.34E-04,  avg # of iterations =  4.0

[...]

     total energy              =   -2245.68048642 Ry
     estimated scf accuracy    <       1.91018229 Ry

[...]

     iteration #  7     ecut=    80.00 Ry     beta= 0.70
     Davidson diagonalization with overlap
     c_bands:  1 eigenvalues not converged
     ethr =  3.12E-06,  avg # of iterations = 20.0

[...]

     End of self-consistent calculation

          k = 0.0000 0.0000 0.0000 (105382 PWs)   bands (ev):

   -62.8324 -62.8257 -62.8131 -62.8060 -62.7899 -62.7523 -62.7385 -62.7346
   -62.7107 -62.7040 -62.6856 -62.6756 -37.1750 -37.1089 -37.0921 -37.0842
   -37.0772 -37.0507 -37.0397 -37.0272 -37.0172 -37.0132 -36.9983 -36.9933
   -36.9843 -36.9758 -36.9704 -36.9551 -36.9410 -36.9294 -36.9175 -36.9111
   -36.8901 -36.8861 -36.8820 -36.8804 -36.8671 -36.8589 -36.8457 -36.8404
   -36.8240 -36.8175 -36.8112 -36.7980 -36.7801 -36.6969 -36.6719 -36.6607
   -28.8531 -15.8762 -15.1418 -15.0337 -14.9167 -14.8316 -14.7142 -14.4533
   -14.4088 -14.3895 -14.3608 -14.3143 -14.3108 -14.2231 -14.1593 -14.0934
   -14.0703 -14.0427 -13.9732 -13.9221 -13.7918 -13.7749 -13.7498 -12.9617
   -11.2102 -10.8860  -8.9543  -7.5299  -7.3848  -7.2159  -7.2031  -7.1322
    -7.1124  -6.9929  -6.9762  -6.7479  -6.7360  -6.6578  -6.6235  -6.5784
    -6.4191  -6.4035  -6.3400  -6.2875  -6.0270  -5.9856  -5.8834  -5.8472
    -5.7953  -5.7592  -5.6796  -5.6250  -5.5994  -5.5879  -5.5501  -5.5322
    -5.4537  -5.4425  -5.3650  -5.3189  -5.2390  -5.1307  -5.0731  -4.9953
    -4.9235  -4.8874  -4.8404  -4.7540  -4.6556  -4.5543  -4.4205  -4.4051
    -4.2556  -4.2154  -4.1880  -4.0967  -3.9857  -3.8597  -3.7961  -3.7392
    -3.6973  -3.6615  -3.6254  -3.5648  -3.5241  -3.4651  -3.4334  -3.3907
    -3.3415  -3.3248  -3.2682  -3.2073  -2.9914  -2.9058  -2.8755  -2.7707
    -2.7513  -2.7061  -2.6702  -2.6587  -2.5778  -2.5086  -2.4770  -2.2398
    -2.0131  -1.9201  -1.8782  -1.2900  -0.9326  -0.7106  -0.4964  -0.1188
    -0.0773  -0.0008   0.0291   0.0819   0.1803   0.2899   0.3156   0.3342
     0.3756   0.4302   0.5176   0.5661   0.6063   0.6119   0.6366   0.6907
     0.7472   0.7899   0.8136   0.8696   0.8928   0.9488   0.9869   1.0151
     1.0674   1.2829   1.4182

     the Fermi energy is    -1.1113 ev

!    total energy              =   -2245.70693797 Ry
     estimated scf accuracy    <       0.00000049 Ry
     smearing contrib. (-TS)   =      -0.00201205 Ry
     internal energy E=F+TS    =   -2245.70492592 Ry

     The total energy is F=E-TS. E is the sum of the following terms:
[...]
     atom    3 type  2   force =     0.04629717   -0.16811313  -38.22440105
     atom    4 type  1   force =    -0.12495542    1.26237829   -0.96541341
     atom    5 type  2   force =    -1.35732139    2.13673488   37.65881621
     atom    6 type  2   force =     0.22039198   -0.16677248  -38.99048663
     atom    7 type  1   force =    -2.78091050   -2.35251806    1.99680762
     atom    8 type  2   force =    -1.20203088    0.10318457   38.00249194
     atom    9 type  2   force =     0.37050817    0.09357723  -38.16368270
     atom   10 type  1   force =    -0.49515003   -1.59741198   -0.66633704
     atom   11 type  2   force =    -1.00823353   -2.26142993   37.99489391
     atom   12 type  2   force =     0.12944873    0.20108686  -38.57979329
     atom   13 type  1   force =     0.11889956    0.99134197    0.61341686
     atom   14 type  2   force =    -0.98288629   -0.08517558   37.79788773
     atom   15 type  2   force =    -0.02976556   -0.22198701  -38.40387535
     atom   16 type  1   force =    -0.38758005    3.83096717    0.02281565
     atom   17 type  2   force =     0.82925616    1.43964557   37.86181563
     atom   18 type  2   force =    -0.24123000   -0.21080383  -38.61454018
     atom   19 type  1   force =     2.64650724   -2.02269355    2.51671032
     atom   20 type  2   force =    -0.05555558    0.08635803  -39.12944348
     atom   21 type  1   force =    -0.51891574   -0.82469263   -0.32831010
     atom   22 type  2   force =     0.46583741   -1.65758150   38.35773051
     atom   23 type  2   force =    -0.22025353    0.15677488  -38.19453590
     atom   24 type  1   force =     0.97227167    0.94742738   -2.33966046
     atom   25 type  2   force =     1.18446490    0.08316951   38.08271376
     atom   26 type  2   force =    -0.02072434   -0.19408149  -38.34903784
     atom   27 type  1   force =     0.50231149    0.86053630   -0.58641095
     atom   28 type  2   force =     0.53233234    1.50232592   37.48125389
     atom   29 type  2   force =     0.02516553    0.11900079  -38.51227224
     atom   30 type  1   force =     0.17303821   -1.17534135    1.99540095
     atom   31 type  2   force =     1.30842210    0.07431863   38.21747572
     atom   32 type  2   force =    -0.31268662    0.08514294  -38.18470347
     atom   33 type  1   force =     1.03226190   -0.97906706    2.09820739
     atom   34 type  2   force =     0.56365789   -1.40368859   38.47645591
     atom   35 type  2   force =     0.08978343    0.01983168  -38.10455825
     atom   36 type  3   force =    -0.11216742    0.26296597   50.48849593
     The local contribution  to forces
     atom    1 type  1   force =     1.07414310   -1.18882082    1.91168228
     atom    2 type  2   force =     0.27188438    0.10298114  -28.88719768
     atom    3 type  2   force =    -0.04409884    0.17763176   37.96768701
     atom    4 type  1   force =     0.12097262   -1.26572489    0.96238122
     atom    5 type  2   force =     1.35247353   -2.11632444  -37.42160398
     atom    6 type  2   force =    -0.21946583    0.16923821   38.74740107
     atom    7 type  1   force =     2.80052071    2.35255929   -1.96929703
     atom    8 type  2   force =     1.19458820   -0.10548027  -37.75570561
     atom    9 type  2   force =    -0.36353383   -0.07964654   37.91288548
     atom   10 type  1   force =     0.49310183    1.58103482    0.65029638
     atom   11 type  2   force =     1.00152579    2.26117280  -37.75250071
     atom   12 type  2   force =    -0.12197992   -0.18848499   38.33567619
     atom   13 type  1   force =    -0.12043487   -1.01699113   -0.61598169
     atom   14 type  2   force =     0.98262117    0.09035970  -37.54447434
     atom   15 type  2   force =     0.03058007    0.23056391   38.16428667
     atom   16 type  1   force =     0.38736281   -3.86462028    0.01064775
     atom   17 type  2   force =    -0.82457282   -1.41692521  -37.62371795
     atom   18 type  2   force =     0.24084982    0.21666105   38.36782366
     atom   19 type  1   force =    -2.66160299    2.01881328   -2.49038370
     atom   20 type  2   force =     0.05587908   -0.07205924   38.88837808
     atom   21 type  1   force =     0.51908558    0.79471125    0.32602804
     atom   22 type  2   force =    -0.46046484    1.65741868  -38.11629964
     atom   23 type  2   force =     0.21215737   -0.14461378   37.94874493
     atom   24 type  1   force =    -0.96385554   -0.95474958    2.32019152
     atom   25 type  2   force =    -1.18553662   -0.07476414  -37.83123386
     atom   26 type  2   force =     0.01723823    0.20242610   38.10589248
     atom   27 type  1   force =    -0.49876216   -0.86676133    0.58015953
     atom   28 type  2   force =    -0.53193550   -1.49144619  -37.22462304
     atom   29 type  2   force =    -0.02532214   -0.11035067   38.26645266
     atom   30 type  1   force =    -0.17872358    1.15778857   -1.99888054
     atom   31 type  2   force =    -1.29917300   -0.07698659  -37.97107219
     atom   32 type  2   force =     0.30548332   -0.07182945   37.93616407
     atom   33 type  1   force =    -1.02878210    0.97282652   -2.10032294
     atom   34 type  2   force =    -0.56198083    1.41095983  -38.21973095
     atom   35 type  2   force =    -0.08881850   -0.00770225   37.85993232
     atom   36 type  3   force =     0.13720081   -0.21792480  -48.19070883
     The core correction contribution to forces
     atom    1 type  1   force =     0.00000000    0.00000000    0.00000000
     atom    2 type  2   force =    -0.00039572   -0.00049494   -0.00972811
     atom    3 type  2   force =     0.00013571    0.00026334   -0.02136783
     atom    4 type  1   force =     0.00000000    0.00000000    0.00000000
     atom    5 type  2   force =    -0.00047610    0.00095641    0.02069517
     atom    6 type  2   force =     0.00027712   -0.00025211   -0.02086723
     atom    7 type  1   force =     0.00000000    0.00000000    0.00000000
     atom    8 type  2   force =    -0.00040299    0.00016786    0.02094474
     atom    9 type  2   force =     0.00075219    0.00086091   -0.02101078
     atom   10 type  1   force =     0.00000000    0.00000000    0.00000000
     atom   11 type  2   force =    -0.00019166   -0.00020234    0.02092417
     atom   12 type  2   force =     0.00064543    0.00094410   -0.02086932
     atom   13 type  1   force =     0.00000000    0.00000000    0.00000000
     atom   14 type  2   force =     0.00001385    0.00000879    0.02139512
     atom   15 type  2   force =     0.00004286    0.00032760   -0.02059848
     atom   16 type  1   force =     0.00000000    0.00000000    0.00000000
     atom   17 type  2   force =     0.00051516    0.00103885    0.02055529
     atom   18 type  2   force =    -0.00021286   -0.00014875   -0.02092332
     atom   19 type  1   force =     0.00000000    0.00000000    0.00000000
     atom   20 type  2   force =    -0.00000818    0.00075491   -0.02122949
     atom   21 type  1   force =     0.00000000    0.00000000    0.00000000
     atom   22 type  2   force =     0.00012096   -0.00026478    0.02076050
     atom   23 type  2   force =    -0.00078309    0.00089946   -0.02091279
     atom   24 type  1   force =     0.00000000    0.00000000    0.00000000
     atom   25 type  2   force =    -0.00007107    0.00045624    0.02130136
     atom   26 type  2   force =    -0.00018472    0.00018040   -0.02076740
     atom   27 type  1   force =     0.00000000    0.00000000    0.00000000
     atom   28 type  2   force =    -0.00001802    0.00078605    0.02149186
     atom   29 type  2   force =    -0.00007157    0.00035311   -0.02079437
     atom   30 type  1   force =     0.00000000    0.00000000    0.00000000
     atom   31 type  2   force =     0.00053210    0.00011093    0.02099205
     atom   32 type  2   force =    -0.00070907    0.00083039   -0.02099464
     atom   33 type  1   force =     0.00000000    0.00000000    0.00000000
     atom   34 type  2   force =     0.00005202    0.00036222    0.02162339
     atom   35 type  2   force =     0.00011435    0.00067394   -0.02089632
     atom   36 type  3   force =     0.00027445    0.00047228    0.02460528
     The Hubbard contrib.    to forces
     atom    1 type  1   force =     0.00000000    0.00000000    0.00000000
     atom    2 type  2   force =     0.00000000    0.00000000    0.00000000
     atom    3 type  2   force =     0.00000000    0.00000000    0.00000000
     atom    4 type  1   force =     0.00000000    0.00000000    0.00000000
     atom    5 type  2   force =     0.00000000    0.00000000    0.00000000
     atom    6 type  2   force =     0.00000000    0.00000000    0.00000000
     atom    7 type  1   force =     0.00000000    0.00000000    0.00000000
     atom    8 type  2   force =     0.00000000    0.00000000    0.00000000
     atom    9 type  2   force =     0.00000000    0.00000000    0.00000000
     atom   10 type  1   force =     0.00000000    0.00000000    0.00000000
     atom   11 type  2   force =     0.00000000    0.00000000    0.00000000
     atom   12 type  2   force =     0.00000000    0.00000000    0.00000000
     atom   13 type  1   force =     0.00000000    0.00000000    0.00000000
     atom   14 type  2   force =     0.00000000    0.00000000    0.00000000
     atom   15 type  2   force =     0.00000000    0.00000000    0.00000000
     atom   16 type  1   force =     0.00000000    0.00000000    0.00000000
     atom   17 type  2   force =     0.00000000    0.00000000    0.00000000
     atom   18 type  2   force =     0.00000000    0.00000000    0.00000000
     atom   19 type  1   force =     0.00000000    0.00000000    0.00000000
     atom   20 type  2   force =     0.00000000    0.00000000    0.00000000
     atom   21 type  1   force =     0.00000000    0.00000000    0.00000000
     atom   22 type  2   force =     0.00000000    0.00000000    0.00000000
     atom   23 type  2   force =     0.00000000    0.00000000    0.00000000
     atom   24 type  1   force =     0.00000000    0.00000000    0.00000000
     atom   25 type  2   force =     0.00000000    0.00000000    0.00000000
     atom   26 type  2   force =     0.00000000    0.00000000    0.00000000
     atom   27 type  1   force =     0.00000000    0.00000000    0.00000000
     atom   28 type  2   force =     0.00000000    0.00000000    0.00000000
     atom   29 type  2   force =     0.00000000    0.00000000    0.00000000
     atom   30 type  1   force =     0.00000000    0.00000000    0.00000000
     atom   31 type  2   force =     0.00000000    0.00000000    0.00000000
     atom   32 type  2   force =     0.00000000    0.00000000    0.00000000
     atom   33 type  1   force =     0.00000000    0.00000000    0.00000000
     atom   34 type  2   force =     0.00000000    0.00000000    0.00000000
     atom   35 type  2   force =     0.00000000    0.00000000    0.00000000
     atom   36 type  3   force =     0.00000000    0.00000000    0.00000000
     The SCF correction term to forces
     atom    1 type  1   force =    -0.00001016    0.00003440   -0.00005022
     atom    2 type  2   force =     0.00001382    0.00000577   -0.00001269
     atom    3 type  2   force =    -0.00000142    0.00000873   -0.00001112
     atom    4 type  1   force =     0.00002278    0.00003186   -0.00001703
     atom    5 type  2   force =     0.00000485    0.00002005   -0.00000728
     atom    6 type  2   force =    -0.00000256    0.00001469   -0.00001888
     atom    7 type  1   force =    -0.00001661   -0.00002333   -0.00003061
     atom    8 type  2   force =     0.00001765    0.00000062   -0.00001176
     atom    9 type  2   force =     0.00000110   -0.00000513    0.00000580
     atom   10 type  1   force =     0.00001353   -0.00005153   -0.00001368
     atom   11 type  2   force =    -0.00000123   -0.00001990   -0.00001733
     atom   12 type  2   force =    -0.00000849   -0.00001472   -0.00000230
     atom   13 type  1   force =    -0.00001127    0.00002620   -0.00002698
     atom   14 type  2   force =    -0.00001902   -0.00000203   -0.00001364
     atom   15 type  2   force =    -0.00001055    0.00000388   -0.00001242
     atom   16 type  1   force =    -0.00002410    0.00003407   -0.00004248
     atom   17 type  2   force =    -0.00002156    0.00001393   -0.00001165
     atom   18 type  2   force =    -0.00001095    0.00001610   -0.00000804
     atom   19 type  1   force =    -0.00002375   -0.00002451   -0.00001062
     atom   20 type  2   force =    -0.00000849   -0.00000108   -0.00000773
     atom   21 type  1   force =    -0.00002390   -0.00003475   -0.00002290
     atom   22 type  2   force =    -0.00001048   -0.00001894   -0.00001850
     atom   23 type  2   force =     0.00000254   -0.00001855    0.00000406
     atom   24 type  1   force =     0.00004294    0.00004127   -0.00001722
     atom   25 type  2   force =    -0.00000021    0.00000107   -0.00001689
     atom   26 type  2   force =     0.00000280    0.00001014    0.00000813
     atom   27 type  1   force =    -0.00000127    0.00002978   -0.00002053
     atom   28 type  2   force =     0.00001390    0.00001894   -0.00001728
     atom   29 type  2   force =     0.00001328    0.00001361    0.00000866
     atom   30 type  1   force =     0.00001465   -0.00003346    0.00001258
     atom   31 type  2   force =    -0.00000181   -0.00000255   -0.00001633
     atom   32 type  2   force =     0.00001161   -0.00001054    0.00001274
     atom   33 type  1   force =     0.00001065   -0.00003104   -0.00000378
     atom   34 type  2   force =     0.00001368   -0.00002665   -0.00001474
     atom   35 type  2   force =     0.00000694   -0.00001807    0.00001508
     atom   36 type  3   force =     0.00000758    0.00002060   -0.00000859

     Total force =     0.006791     Total SCF correction =     0.000195
     Energy error            =      9.0E-05 Ry
     Gradient error          =      2.3E-03 Ry/Bohr

     bfgs converged in  26 scf cycles and  25 bfgs steps
     (criteria: energy <  1.0E-04 Ry, force <  1.0E-02 Ry/Bohr)

     End of BFGS Geometry Optimization

     Final energy             =   -2246.4498135540 Ry

     File ./MoS2-V-O.bfgs deleted, as requested
Begin final coordinates

ATOMIC_POSITIONS (angstrom)
Mo            6.5197423953        1.7875359501        2.7291477119
S             8.1118467278        0.8663333972        4.2595838468
S             8.1217455560        0.8419594657        1.1708741556
Mo            8.0989164861        4.5045062234        2.7037627894
S             6.4908916412        3.6790162066        4.2968185213
S             6.5346935293        3.5910332490        1.0784266489
Mo            6.4875188811        7.1933027118        2.6700409221
S             8.0583915051        6.3102376005        4.3035472136
S             8.1236462825        6.3457992124        1.1213741645
Mo            8.1181038491        9.9149135140        2.7562920109
S             6.4973484672        8.9570464873        4.3236304148
S             6.5592057640        9.0276771353        1.1181485983
Mo            3.4055062282        1.7577202620        2.7386004543
S             4.9774863609        0.8368710916        4.3288096664
S             4.9643018542        0.8386679037        1.1439993556
Mo            4.9742524780        4.5488315184        2.6335739784
S             3.4504021670        3.6699573590        4.2867909612
S             3.4085452179        3.5723135060        1.0926387766
Mo            3.4566193753        7.1901549887        2.6757676002
S             4.9699373194        6.3320584607        1.0358105839
Mo            4.9733505195        9.9193619337        2.7239279030
S             3.4490273563        8.9625575185        4.3278758056
S             3.3712161727        9.0360281983        1.1340751281
Mo            0.2673429662        1.7758588613        2.7341067527
S             1.8309135831        0.8743842513        4.3531371596
S             1.8366326247        0.8334294379        1.1548915235
Mo            1.8439761089        4.5072472296        2.7025739603
S             0.2445543280        3.6210108497        4.3086501579
S             0.2448140209        3.5921376337        1.1222195566
Mo            0.2533297645        7.2275389176        2.7512805252
S             1.8959090834        6.3076145723        4.3097477204
S             1.8320067080        6.3435057142        1.1216518799
Mo            1.8265699390        9.9464232550        2.7740475628
S             0.2408559822        9.0385659931        4.3764677584
S             0.2599660803        9.0419363475        1.1711664367
O             8.1280374665        0.9017316756        5.7572893710
End final coordinates

     Writing all to output data dir ./MoS2-V-O.save/

     General routines

     Parallel routines

   This run was terminated on:  13:25: 2   1Nov2023

   JOB DONE.