     Program PWSCF v.7.2 starts on  1Nov2023 at 21:47:49

     Waiting for input...
     Reading input from standard input
Warning: card &CELL ignored
Warning: card CELL_DYNAMICS = 'BFGS', ignored
Warning: card CELL_DOFREE = '2DXY' ignored
Warning: card / ignored

     Current dimensions of program PWSCF are:
     Max number of different atomic species (ntypx) = 10
     Max number of k-points (npk) =  40000
     Max angular momentum in pseudopotentials (lmaxx) =  4
     file O.pbe-n-kjpaw_psl.0.1.UPF: wavefunction(s)  2P renormalized

     IMPORTANT: XC functional enforced from input :
     Exchange-correlation= RVV10
                           (   1   4  13   4  26   0   0)
     Any further DFT definition will be discarded
     Please, verify this is what you really want

     gamma-point specific algorithms are used
     signal trapping enabled: kill the code with -SIGUSR1 to stop cleanly the simulation

     R & G space division:  proc/nbgrp/npool/nimage =      48
     Subspace diagonalization in iterative solution of the eigenvalue problem:
     one sub-group per band group will be used

     Using Slab Decomposition

     bravais-lattice index     =            0
     lattice parameter (alat)  =      17.8707  a.u.
     unit-cell volume          =   17436.2743 (a.u.)^3
     number of atoms/cell      =           36
     number of atomic types    =            3
     number of electrons       =       312.00
     number of Kohn-Sham states=          187
     kinetic-energy cutoff     =      80.0000  Ry
     charge density cutoff     =     650.0000  Ry
     scf convergence threshold =      1.0E-06
     mixing beta               =       0.7000
     number of iterations used =            8  local-TF  mixing
     energy convergence thresh.=      1.0E-04
     force convergence thresh. =      1.0E-02
     Exchange-correlation= RVV10
                           (   1   4  13   4  26   0   0)
     nstep                     =          200

     celldm(1)=  17.870686  celldm(2)=   0.000000  celldm(3)=   0.000000
     celldm(4)=   0.000000  celldm(5)=   0.000000  celldm(6)=   0.000000

     crystal axes: (cart. coord. in units of alat)
               a(1) = (   1.000000   0.000000   0.000000 )
               a(2) = (   0.000000   1.155671   0.000000 )
               a(3) = (   0.000000   0.000000   2.643601 )

     reciprocal axes: (cart. coord. in units 2 pi/alat)
               b(1) = (  1.000000  0.000000  0.000000 )
               b(2) = (  0.000000  0.865298  0.000000 )
               b(3) = (  0.000000  0.000000  0.378272 )

     PseudoPot. # 1 for Mo read from file:
     ../pseudo/Mo_ONCV_PBE-1.0.oncvpsp.upf
     MD5 check sum: 1b5d28e075c9ccadda658a603575cd1f
     Pseudo is Norm-conserving, Zval = 14.0
     Generated using ONCVPSP code by D. R. Hamann
     Using radial grid of 1526 points,  6 beta functions with:
                l(1) =   0
                l(2) =   0
                l(3) =   1
                l(4) =   1
                l(5) =   2
                l(6) =   2

     PseudoPot. # 2 for S  read from file:
     ../pseudo/s_pbe_v1.4.uspp.F.UPF
     MD5 check sum: 88d86576ff6df21479756cfb9bdac1df
     Pseudo is Ultrasoft + core correction, Zval =  6.0
     Generated by new atomic code, or converted to UPF format
     Using radial grid of  907 points,  6 beta functions with:
                l(1) =   0
                l(2) =   0
                l(3) =   1
                l(4) =   1
                l(5) =   2
                l(6) =   2
     Q(r) pseudized with  8 coefficients,  rinner =    1.300   1.300   1.300
                                                       1.300   1.300

     PseudoPot. # 3 for O  read from file:
     ../pseudo/O.pbe-n-kjpaw_psl.0.1.UPF
     MD5 check sum: 0234752ac141de4415c5fc33072bef88
     Pseudo is Projector augmented-wave + core cor, Zval =  6.0
     Generated using "atomic" code by A. Dal Corso  v.5.0.99 svn rev. 10869
     Shape of augmentation charge: BESSEL
     Using radial grid of 1095 points,  4 beta functions with:
                l(1) =   0
                l(2) =   0
                l(3) =   1
                l(4) =   1
     Q(r) pseudized with 0 coefficients

     atomic species   valence    mass     pseudopotential
        Mo            14.00    95.94000     Mo( 1.00)
        S              6.00    32.06500     S ( 1.00)
        O              6.00    15.99940     O ( 1.00)

     No symmetry found

   Cartesian axes

     site n.     atom                  positions (alat units)
         1           Mo  tau(   1) = (   0.6952221   0.1890506   0.2985846  )
         2           S   tau(   2) = (   0.8646417   0.0856217   0.4689279  )
         3           S   tau(   3) = (   0.8663890   0.0857843   0.1351291  )
         4           Mo  tau(   4) = (   0.8560186   0.4753274   0.2873942  )
         5           S   tau(   5) = (   0.6873294   0.3936244   0.4596353  )
         6           S   tau(   6) = (   0.6929804   0.3713468   0.1185692  )
         7           Mo  tau(   7) = (   0.6862796   0.7633098   0.2825370  )
         8           S   tau(   8) = (   0.8545980   0.6708292   0.4486168  )
         9           S   tau(   9) = (   0.8545123   0.6666874   0.1146125  )
        10           Mo  tau(  10) = (   0.8629403   1.0471007   0.3006803  )
        11           S   tau(  11) = (   0.6868280   0.9456650   0.4634891  )
        12           S   tau(  12) = (   0.6998113   0.9568511   0.1205389  )
        13           Mo  tau(  13) = (   0.3618216   0.1847309   0.2935964  )
        14           S   tau(  14) = (   0.5260962   0.0863870   0.4600448  )
        15           S   tau(  15) = (   0.5348379   0.0894875   0.1297123  )
        16           Mo  tau(  16) = (   0.5265817   0.4772436   0.2784130  )
        17           S   tau(  17) = (   0.3624753   0.3882513   0.4525556  )
        18           S   tau(  18) = (   0.3635411   0.3752055   0.1119148  )
        19           Mo  tau(  19) = (   0.3652268   0.7630864   0.2781795  )
        20           S   tau(  20) = (   0.5269494   0.6690381   0.1096838  )
        21           Mo  tau(  21) = (   0.5300192   1.0470394   0.2900995  )
        22           S   tau(  22) = (   0.3670346   0.9457522   0.4574073  )
        23           S   tau(  23) = (   0.3604225   0.9585725   0.1159032  )
        24           Mo  tau(  24) = (   0.0313099   0.1847895   0.3013130  )
        25           S   tau(  25) = (   0.1956761   0.0838230   0.4650863  )
        26           S   tau(  26) = (   0.1967693   0.0903508   0.1278874  )
        27           Mo  tau(  27) = (   0.1967578   0.4753919   0.2813011  )
        28           S   tau(  28) = (   0.0287851   0.3864324   0.4586755  )
        29           S   tau(  29) = (   0.0244514   0.3729871   0.1239344  )
        30           Mo  tau(  30) = (   0.0286728   0.7631204   0.2856894  )
        31           S   tau(  31) = (   0.2011512   0.6675435   0.4465001  )
        32           S   tau(  32) = (   0.1969214   0.6672839   0.1104564  )
        33           Mo  tau(  33) = (   0.1950294   1.0511147   0.2932237  )
        34           S   tau(  34) = (   0.0312912   0.9612169   0.4667423  )
        35           S   tau(  35) = (   0.0292670   0.9563028   0.1216485  )
        36           O   tau(  36) = (   0.3333333   1.0272628   0.5792558  )

     number of k points=     1  Gaussian smearing, width (Ry)=  0.0100
                       cart. coord. in units 2pi/alat
        k(    1) = (   0.0000000   0.0000000   0.0000000), wk =   2.0000000

     Initial potential from superposition of free atoms

     starting charge     311.9873, renormalised to     312.0000

     negative rho (up, down):  2.757E-04 0.000E+00

Carrying out rVV10 run using the following parameters:
Nqs =      20    Nr_points =    1024   r_max =   100.000
b_value =  6.30000    beta =  0.00901
     q_mesh =  0.00010000  0.00030000  0.00058939  0.00100810
               0.00161396  0.00249058  0.00375900  0.00559430
               0.00824984  0.01209221  0.01765183  0.02569619
               0.03733578  0.05417739  0.07854596  0.11380545
               0.16482331  0.23864234  0.34545298  0.50000000

Gradients computed in Reciprocal space

     Starting wfcs are  216 randomized atomic wfcs
     Checking if some PAW data can be deallocated...

     Self-consistent Calculation

     iteration #  1     ecut=    80.00 Ry     beta= 0.70
     Davidson diagonalization with overlap
     ethr =  1.00E-02,  avg # of iterations =  2.0

     Threshold (ethr) on eigenvalues was too large:
     Diagonalizing with lowered threshold

     Davidson diagonalization with overlap
     ethr =  4.44E-04,  avg # of iterations =  4.0

[...]

     total energy              =   -2246.30806987 Ry
     estimated scf accuracy    <       1.63118136 Ry

[...]

     iteration #  5     ecut=    80.00 Ry     beta= 0.70
     Davidson diagonalization with overlap
     c_bands:  1 eigenvalues not converged
     ethr =  7.46E-06,  avg # of iterations = 20.0

[...]

     End of self-consistent calculation

          k = 0.0000 0.0000 0.0000 (105382 PWs)   bands (ev):

   -62.9825 -62.9549 -62.9494 -62.9302 -62.9088 -62.9015 -62.8922 -62.8779
   -62.8745 -62.8682 -62.8171 -62.6975 -37.3322 -37.2773 -37.2428 -37.2303
   -37.1953 -37.1745 -37.1680 -37.1595 -37.1365 -37.1280 -37.1217 -37.1121
   -37.1035 -37.0914 -37.0840 -37.0806 -37.0683 -37.0666 -37.0639 -37.0620
   -37.0565 -37.0448 -37.0267 -37.0238 -36.9999 -36.9936 -36.9820 -36.9564
   -36.9450 -36.9357 -36.9093 -36.8871 -36.8733 -36.8643 -36.8146 -36.7730
   -23.7263 -16.0004 -15.2230 -15.2028 -15.0124 -14.9656 -14.8078 -14.5707
   -14.5268 -14.5141 -14.4901 -14.4400 -14.3967 -14.3787 -14.2983 -14.1975
   -14.1870 -14.1591 -14.1033 -13.9642 -13.9269 -13.9181 -13.8847 -13.5663
    -8.3176  -8.1858  -7.8146  -7.5706  -7.4943  -7.3474  -7.3058  -7.2756
    -7.1753  -7.1058  -7.0676  -6.8630  -6.8207  -6.7712  -6.6850  -6.6577
    -6.5550  -6.5028  -6.3972  -6.3356  -6.1190  -6.0973  -6.0322  -5.9233
    -5.8646  -5.8350  -5.8089  -5.7936  -5.7533  -5.7032  -5.6490  -5.5997
    -5.5755  -5.5656  -5.4557  -5.3210  -5.3061  -5.1978  -5.1676  -5.0841
    -5.0599  -4.9883  -4.9493  -4.9216  -4.7806  -4.6792  -4.5056  -4.3883
    -4.3403  -4.3008  -4.2680  -4.1680  -4.0412  -3.9949  -3.9253  -3.8420
    -3.8078  -3.7604  -3.7265  -3.6586  -3.6418  -3.5795  -3.5494  -3.5039
    -3.4534  -3.4457  -3.3485  -3.2761  -3.2396  -3.0999  -3.0277  -2.8859
    -2.8685  -2.8033  -2.7801  -2.7250  -2.7149  -2.6891  -2.5455  -2.3496
    -2.3253  -2.0935  -2.0306  -1.8833  -1.1033  -0.8438  -0.3543  -0.2181
    -0.1653  -0.1449  -0.0792   0.0186   0.0978   0.1181   0.1719   0.2158
     0.3126   0.3244   0.3413   0.4007   0.4741   0.4929   0.5463   0.5639
     0.6118   0.6665   0.6927   0.7222   0.7663   0.7770   0.8158   0.9002
     0.9484   1.0402   1.2450

     the Fermi energy is    -1.4933 ev

!    total energy              =   -2246.32932489 Ry
     estimated scf accuracy    <       0.00000069 Ry
     smearing contrib. (-TS)   =      -0.00000305 Ry
     internal energy E=F+TS    =   -2246.32932184 Ry

     The total energy is F=E-TS. E is the sum of the following terms:
[...]
     atom    3 type  2   force =     0.09060788    0.08489126  -38.09049507
     atom    4 type  1   force =    -0.16716250    0.14642428    0.13018796
     atom    5 type  2   force =    -0.66327513    1.07476252   38.11559808
     atom    6 type  2   force =     0.28410565   -0.25316826  -38.42912546
     atom    7 type  1   force =    -2.12300707   -2.53299965    1.37687952
     atom    8 type  2   force =    -1.18777864   -0.18060471   38.07927322
     atom    9 type  2   force =     0.35955460   -0.14161267  -38.22653692
     atom   10 type  1   force =    -0.46545015   -0.05588185    1.21342213
     atom   11 type  2   force =     0.59677475   -1.43758529   37.69769775
     atom   12 type  2   force =     0.22529183    0.20963038  -38.73835983
     atom   13 type  1   force =     0.13647536    1.61791255    0.99969371
     atom   14 type  2   force =     0.59068311    1.04348226   37.85014414
     atom   15 type  2   force =     0.02406971    0.10070150  -38.49577783
     atom   16 type  1   force =     0.40548563    2.93212924    0.98828990
     atom   17 type  2   force =     0.84950338    1.01043484   38.13455585
     atom   18 type  2   force =    -0.24865561   -0.29916872  -38.41294478
     atom   19 type  1   force =     2.85674945   -2.83359888   -0.63730180
     atom   20 type  2   force =     0.11314068   -0.10949848  -39.28519148
     atom   21 type  1   force =     1.05769528    0.25005524   -3.45834477
     atom   22 type  2   force =     0.45671638   -1.63874439   28.45867463
     atom   23 type  2   force =    -0.23043907    0.17470170  -38.55548100
     atom   24 type  1   force =    -0.47708893    1.04895046    0.87051894
     atom   25 type  2   force =    -0.35065934    1.13254803   38.21701500
     atom   26 type  2   force =    -0.08996404    0.14591306  -38.41772503
     atom   27 type  1   force =    -0.22915068   -0.23545520    0.28561724
     atom   28 type  2   force =    -0.16237697    0.42129805   38.02502906
     atom   29 type  2   force =    -0.03662030   -0.01493382  -37.96216685
     atom   30 type  1   force =    -0.61380317   -1.31236525    1.32629033
     atom   31 type  2   force =     0.52250868   -0.90388961   37.86137165
     atom   32 type  2   force =    -0.47680999   -0.10693700  -38.54018933
     atom   33 type  1   force =    -0.61317868    0.24577194   -1.53042525
     atom   34 type  2   force =    -1.04753924   -0.42749530   38.19656067
     atom   35 type  2   force =    -0.05632108    0.00896478  -38.31893153
     atom   36 type  3   force =     0.57958280   -0.82478563   50.10633934
     The local contribution  to forces
     atom    1 type  1   force =    -0.28111205   -1.28023486   -0.77237975
     atom    2 type  2   force =     0.19414853   -0.39288591  -38.13843210
     atom    3 type  2   force =    -0.08792418   -0.07208494   37.84222536
     atom    4 type  1   force =     0.16146517   -0.15217082   -0.13173193
     atom    5 type  2   force =     0.65956618   -1.05467284  -37.87912582
     atom    6 type  2   force =    -0.28469577    0.25619234   38.18404431
     atom    7 type  1   force =     2.13692058    2.52629191   -1.35400317
     atom    8 type  2   force =     1.17961112    0.17754664  -37.83259774
     atom    9 type  2   force =    -0.35353464    0.15197115   37.97715906
     atom   10 type  1   force =     0.46237283    0.04836803   -1.22259111
     atom   11 type  2   force =    -0.60093118    1.43222161  -37.45348357
     atom   12 type  2   force =    -0.21792431   -0.19531771   38.49506371
     atom   13 type  1   force =    -0.13973778   -1.63711227   -0.99304890
     atom   14 type  2   force =    -0.59001978   -1.03748323  -37.59817014
     atom   15 type  2   force =    -0.02370975   -0.09084895   38.25529228
     atom   16 type  1   force =    -0.41073715   -2.95970753   -0.95499059
     atom   17 type  2   force =    -0.84451982   -0.98858893  -37.89831768
     atom   18 type  2   force =     0.24881087    0.30393699   38.16622073
     atom   19 type  1   force =    -2.87243641    2.81770696    0.64738355
     atom   20 type  2   force =    -0.11200479    0.12234234   39.04241359
     atom   21 type  1   force =    -1.04792303   -0.26140715    3.43412231
     atom   22 type  2   force =    -0.47225263    1.62156881  -28.74667096
     atom   23 type  2   force =     0.22286381   -0.16204386   38.30139084
     atom   24 type  1   force =     0.47757061   -1.06501733   -0.87365419
     atom   25 type  2   force =     0.34879290   -1.12324948  -37.96633748
     atom   26 type  2   force =     0.08838332   -0.13553152   38.17513588
     atom   27 type  1   force =     0.23676059    0.23100626   -0.28724667
     atom   28 type  2   force =     0.16079670   -0.41001574  -37.76903916
     atom   29 type  2   force =     0.03682818    0.02391454   37.71483152
     atom   30 type  1   force =     0.61513234    1.29107625   -1.33022858
     atom   31 type  2   force =    -0.52112097    0.89754804  -37.61155560
     atom   32 type  2   force =     0.46966706    0.12025539   38.29261120
     atom   33 type  1   force =     0.60464556   -0.25052127    1.51152322
     atom   34 type  2   force =     1.04877678    0.43439988  -37.93959451
     atom   35 type  2   force =     0.05678438    0.00323542   38.07732966
     atom   36 type  3   force =    -0.55970898    0.87493205  -47.81969310
     The core correction contribution to forces
     atom    1 type  1   force =     0.00000000    0.00000000    0.00000000
     atom    2 type  2   force =    -0.00001931    0.00047210    0.02100739
     atom    3 type  2   force =     0.00015924    0.00056141   -0.02096308
     atom    4 type  1   force =     0.00000000    0.00000000    0.00000000
     atom    5 type  2   force =    -0.00033238    0.00086155    0.02052920
     atom    6 type  2   force =     0.00018300   -0.00018201   -0.02084449
     atom    7 type  1   force =     0.00000000    0.00000000    0.00000000
     atom    8 type  2   force =    -0.00047532    0.00009460    0.02101641
     atom    9 type  2   force =     0.00067858    0.00069721   -0.02102044
     atom   10 type  1   force =     0.00000000    0.00000000    0.00000000
     atom   11 type  2   force =    -0.00009501   -0.00039647    0.02103913
     atom   12 type  2   force =     0.00063224    0.00092223   -0.02082924
     atom   13 type  1   force =     0.00000000    0.00000000    0.00000000
     atom   14 type  2   force =     0.00007054    0.00001473    0.02131629
     atom   15 type  2   force =    -0.00008878    0.00049215   -0.02070811
     atom   16 type  1   force =     0.00000000    0.00000000    0.00000000
     atom   17 type  2   force =     0.00046785    0.00101548    0.02053058
     atom   18 type  2   force =    -0.00024119   -0.00018791   -0.02090854
     atom   19 type  1   force =     0.00000000    0.00000000    0.00000000
     atom   20 type  2   force =     0.00010854    0.00060471   -0.02119156
     atom   21 type  1   force =     0.00000000    0.00000000    0.00000000
     atom   22 type  2   force =    -0.00097633   -0.00119496   -0.00999385
     atom   23 type  2   force =    -0.00067367    0.00073554   -0.02125538
     atom   24 type  1   force =     0.00000000    0.00000000    0.00000000
     atom   25 type  2   force =    -0.00007319    0.00042636    0.02131526
     atom   26 type  2   force =    -0.00003036    0.00048316   -0.02081296
     atom   27 type  1   force =     0.00000000    0.00000000    0.00000000
     atom   28 type  2   force =    -0.00009296    0.00068717    0.02130499
     atom   29 type  2   force =     0.00005690    0.00030890   -0.02085958
     atom   30 type  1   force =     0.00000000    0.00000000    0.00000000
     atom   31 type  2   force =     0.00008872    0.00001489    0.02126940
     atom   32 type  2   force =    -0.00078794    0.00075255   -0.02099466
     atom   33 type  1   force =     0.00000000    0.00000000    0.00000000
     atom   34 type  2   force =     0.00005112    0.00035476    0.02164446
     atom   35 type  2   force =    -0.00001086    0.00060456   -0.02080625
     atom   36 type  3   force =     0.00019690    0.00053352    0.02454387
     The Hubbard contrib.    to forces
     atom    1 type  1   force =     0.00000000    0.00000000    0.00000000
     atom    2 type  2   force =     0.00000000    0.00000000    0.00000000
     atom    3 type  2   force =     0.00000000    0.00000000    0.00000000
     atom    4 type  1   force =     0.00000000    0.00000000    0.00000000
     atom    5 type  2   force =     0.00000000    0.00000000    0.00000000
     atom    6 type  2   force =     0.00000000    0.00000000    0.00000000
     atom    7 type  1   force =     0.00000000    0.00000000    0.00000000
     atom    8 type  2   force =     0.00000000    0.00000000    0.00000000
     atom    9 type  2   force =     0.00000000    0.00000000    0.00000000
     atom   10 type  1   force =     0.00000000    0.00000000    0.00000000
     atom   11 type  2   force =     0.00000000    0.00000000    0.00000000
     atom   12 type  2   force =     0.00000000    0.00000000    0.00000000
     atom   13 type  1   force =     0.00000000    0.00000000    0.00000000
     atom   14 type  2   force =     0.00000000    0.00000000    0.00000000
     atom   15 type  2   force =     0.00000000    0.00000000    0.00000000
     atom   16 type  1   force =     0.00000000    0.00000000    0.00000000
     atom   17 type  2   force =     0.00000000    0.00000000    0.00000000
     atom   18 type  2   force =     0.00000000    0.00000000    0.00000000
     atom   19 type  1   force =     0.00000000    0.00000000    0.00000000
     atom   20 type  2   force =     0.00000000    0.00000000    0.00000000
     atom   21 type  1   force =     0.00000000    0.00000000    0.00000000
     atom   22 type  2   force =     0.00000000    0.00000000    0.00000000
     atom   23 type  2   force =     0.00000000    0.00000000    0.00000000
     atom   24 type  1   force =     0.00000000    0.00000000    0.00000000
     atom   25 type  2   force =     0.00000000    0.00000000    0.00000000
     atom   26 type  2   force =     0.00000000    0.00000000    0.00000000
     atom   27 type  1   force =     0.00000000    0.00000000    0.00000000
     atom   28 type  2   force =     0.00000000    0.00000000    0.00000000
     atom   29 type  2   force =     0.00000000    0.00000000    0.00000000
     atom   30 type  1   force =     0.00000000    0.00000000    0.00000000
     atom   31 type  2   force =     0.00000000    0.00000000    0.00000000
     atom   32 type  2   force =     0.00000000    0.00000000    0.00000000
     atom   33 type  1   force =     0.00000000    0.00000000    0.00000000
     atom   34 type  2   force =     0.00000000    0.00000000    0.00000000
     atom   35 type  2   force =     0.00000000    0.00000000    0.00000000
     atom   36 type  3   force =     0.00000000    0.00000000    0.00000000
     The SCF correction term to forces
     atom    1 type  1   force =     0.00000040    0.00000316   -0.00008914
     atom    2 type  2   force =    -0.00000421    0.00000392   -0.00003761
     atom    3 type  2   force =     0.00000050    0.00000138   -0.00002799
     atom    4 type  1   force =    -0.00000021    0.00000029   -0.00007161
     atom    5 type  2   force =    -0.00000134   -0.00000835   -0.00004155
     atom    6 type  2   force =     0.00000361   -0.00001407   -0.00000928
     atom    7 type  1   force =    -0.00000219    0.00001239   -0.00009448
     atom    8 type  2   force =     0.00000692   -0.00000522   -0.00004974
     atom    9 type  2   force =     0.00000633    0.00000440   -0.00000968
     atom   10 type  1   force =     0.00002093    0.00002126   -0.00009316
     atom   11 type  2   force =    -0.00000395   -0.00000051   -0.00005450
     atom   12 type  2   force =    -0.00000208   -0.00000781   -0.00001450
     atom   13 type  1   force =     0.00001296   -0.00001131   -0.00006860
     atom   14 type  2   force =    -0.00000410    0.00000286   -0.00004345
     atom   15 type  2   force =     0.00000177    0.00000521   -0.00001315
     atom   16 type  1   force =     0.00000429   -0.00002235   -0.00007477
     atom   17 type  2   force =     0.00000449   -0.00001034   -0.00004003
     atom   18 type  2   force =    -0.00000033   -0.00000840   -0.00001104
     atom   19 type  1   force =     0.00000733    0.00003610   -0.00008497
     atom   20 type  2   force =     0.00001315    0.00000903   -0.00000476
     atom   21 type  1   force =    -0.00002558   -0.00000500   -0.00008072
     atom   22 type  2   force =     0.00000401    0.00000844   -0.00007973
     atom   23 type  2   force =     0.00000132   -0.00000794    0.00000105
     atom   24 type  1   force =     0.00001826   -0.00000829   -0.00008869
     atom   25 type  2   force =     0.00000083    0.00000363   -0.00005050
     atom   26 type  2   force =    -0.00001006   -0.00000330   -0.00001285
     atom   27 type  1   force =    -0.00002425   -0.00002185   -0.00008936
     atom   28 type  2   force =    -0.00000320   -0.00000416   -0.00004134
     atom   29 type  2   force =     0.00000100   -0.00000889   -0.00001843
     atom   30 type  1   force =    -0.00001219    0.00000148   -0.00009476
     atom   31 type  2   force =    -0.00000865    0.00000185   -0.00006394
     atom   32 type  2   force =    -0.00000758    0.00001391   -0.00000045
     atom   33 type  1   force =     0.00003099    0.00000424   -0.00009939
     atom   34 type  2   force =    -0.00000269   -0.00000144   -0.00005057
     atom   35 type  2   force =    -0.00000001    0.00000220   -0.00002095
     atom   36 type  3   force =    -0.00000047    0.00005078   -0.00007423

     Total force =     0.006710     Total SCF correction =     0.000371
     Energy error            =      8.1E-05 Ry
     Gradient error          =      2.2E-03 Ry/Bohr

     bfgs converged in  20 scf cycles and  19 bfgs steps
     (criteria: energy <  1.0E-04 Ry, force <  1.0E-02 Ry/Bohr)

     End of BFGS Geometry Optimization

     Final energy             =   -2246.4456804907 Ry

     File ./MoS2-V-O.bfgs deleted, as requested
Begin final coordinates

ATOMIC_POSITIONS (angstrom)
Mo            6.5517556531        1.7748133998        2.7471455329
S             8.1226556523        0.8683853708        4.3571497506
S             8.1333076244        0.8600249717        1.1676020785
Mo            8.1183808246        4.5181678346        2.7242062449
S             6.5185861314        3.6742140956        4.3112160549
S             6.5557778044        3.5898015930        1.1168790331
Mo            6.5122925057        7.2040624779        2.6774026843
S             8.0754264844        6.3281219669        4.3183737762
S             8.1408073194        6.3506376353        1.1292432322
Mo            8.1257329776        9.9492931913        2.7628401810
S             6.5025426965        8.9776619813        4.3205065153
S             6.5932968960        9.0354623723        1.1177008735
Mo            3.4177949069        1.7731965983        2.7590868568
S             4.9915678813        0.8328569430        4.3417081907
S             4.9822642246        0.8729086218        1.1450106955
Mo            4.9894246332        4.5511917131        2.6645590825
S             3.4653531174        3.6801875363        4.3182464264
S             3.4264846100        3.5892135992        1.1219879659
Mo            3.4686594106        7.1702760890        2.6713634721
S             5.0010838563        6.3219663632        1.0479384694
Mo            4.9997677679        9.9443770955        2.7101272080
S             3.4348927510        8.9907555423        4.2397895243
S             3.3875112758        9.0404740389        1.1427626453
Mo            0.2593996110        1.7683218190        2.7613034030
S             1.8387369902        0.8747840271        4.3699394888
S             1.8395148431        0.8800634733        1.1596557490
Mo            1.8620020857        4.5223120005        2.7317315354
S             0.2586770804        3.6243696538        4.3260108636
S             0.2630866203        3.5903263970        1.1575943584
Mo            0.2666416320        7.2388510802        2.7575692152
S             1.9174156978        6.3301326083        4.3332357178
S             1.8351092283        6.3382887550        1.1228763510
Mo            1.8163196661        9.9780251580        2.7527489802
S             0.2561462267        9.0584847419        4.3639675385
S             0.2465159729        9.0584949617        1.1660751330
O             3.4496676862        9.0350184813        5.7392067088
End final coordinates

     Writing all to output data dir ./MoS2-V-O.save/

     General routines

     Parallel routines

   This run was terminated on:  22:23:33   1Nov2023

   JOB DONE.