     Program PWSCF v.7.2 starts on  4Nov2023 at 12: 6: 7

     Waiting for input...
     Reading input from standard input
Warning: card &CELL ignored
Warning: card CELL_DYNAMICS = 'BFGS', ignored
Warning: card CELL_DOFREE = '2DXY' ignored
Warning: card / ignored

     Current dimensions of program PWSCF are:
     Max number of different atomic species (ntypx) = 10
     Max number of k-points (npk) =  40000
     Max angular momentum in pseudopotentials (lmaxx) =  4
     file O.pbe-n-kjpaw_psl.0.1.UPF: wavefunction(s)  2P renormalized

     IMPORTANT: XC functional enforced from input :
     Exchange-correlation= RVV10
                           (   1   4  13   4  26   0   0)
     Any further DFT definition will be discarded
     Please, verify this is what you really want

     gamma-point specific algorithms are used
     signal trapping enabled: kill the code with -SIGUSR1 to stop cleanly the simulation

     R & G space division:  proc/nbgrp/npool/nimage =      48
     Subspace diagonalization in iterative solution of the eigenvalue problem:
     one sub-group per band group will be used

     Using Slab Decomposition

     bravais-lattice index     =            0
     lattice parameter (alat)  =      17.8707  a.u.
     unit-cell volume          =   17436.2743 (a.u.)^3
     number of atoms/cell      =           36
     number of atomic types    =            3
     number of electrons       =       312.00
     number of Kohn-Sham states=          187
     kinetic-energy cutoff     =      80.0000  Ry
     charge density cutoff     =     650.0000  Ry
     scf convergence threshold =      1.0E-06
     mixing beta               =       0.7000
     number of iterations used =            8  local-TF  mixing
     energy convergence thresh.=      1.0E-04
     force convergence thresh. =      1.0E-02
     Exchange-correlation= RVV10
                           (   1   4  13   4  26   0   0)
     nstep                     =          200

     celldm(1)=  17.870686  celldm(2)=   0.000000  celldm(3)=   0.000000
     celldm(4)=   0.000000  celldm(5)=   0.000000  celldm(6)=   0.000000

     crystal axes: (cart. coord. in units of alat)
               a(1) = (   1.000000   0.000000   0.000000 )
               a(2) = (   0.000000   1.155671   0.000000 )
               a(3) = (   0.000000   0.000000   2.643601 )

     reciprocal axes: (cart. coord. in units 2 pi/alat)
               b(1) = (  1.000000  0.000000  0.000000 )
               b(2) = (  0.000000  0.865298  0.000000 )
               b(3) = (  0.000000  0.000000  0.378272 )

     PseudoPot. # 1 for Mo read from file:
     ../../pseudo/Mo_ONCV_PBE-1.0.oncvpsp.upf
     MD5 check sum: 1b5d28e075c9ccadda658a603575cd1f
     Pseudo is Norm-conserving, Zval = 14.0
     Generated using ONCVPSP code by D. R. Hamann
     Using radial grid of 1526 points,  6 beta functions with:
                l(1) =   0
                l(2) =   0
                l(3) =   1
                l(4) =   1
                l(5) =   2
                l(6) =   2

     PseudoPot. # 2 for S  read from file:
     ../../pseudo/s_pbe_v1.4.uspp.F.UPF
     MD5 check sum: 88d86576ff6df21479756cfb9bdac1df
     Pseudo is Ultrasoft + core correction, Zval =  6.0
     Generated by new atomic code, or converted to UPF format
     Using radial grid of  907 points,  6 beta functions with:
                l(1) =   0
                l(2) =   0
                l(3) =   1
                l(4) =   1
                l(5) =   2
                l(6) =   2
     Q(r) pseudized with  8 coefficients,  rinner =    1.300   1.300   1.300
                                                       1.300   1.300

     PseudoPot. # 3 for O  read from file:
     ../../pseudo/O.pbe-n-kjpaw_psl.0.1.UPF
     MD5 check sum: 0234752ac141de4415c5fc33072bef88
     Pseudo is Projector augmented-wave + core cor, Zval =  6.0
     Generated using "atomic" code by A. Dal Corso  v.5.0.99 svn rev. 10869
     Shape of augmentation charge: BESSEL
     Using radial grid of 1095 points,  4 beta functions with:
                l(1) =   0
                l(2) =   0
                l(3) =   1
                l(4) =   1
     Q(r) pseudized with 0 coefficients

     atomic species   valence    mass     pseudopotential
        Mo            14.00    95.94000     Mo( 1.00)
        S              6.00    32.06500     S ( 1.00)
        O              6.00    15.99940     O ( 1.00)

     No symmetry found

   Cartesian axes

     site n.     atom                  positions (alat units)
         1           Mo  tau(   1) = (   0.6952221   0.1890506   0.2985846  )
         2           S   tau(   2) = (   0.8646417   0.0856217   0.4689279  )
         3           S   tau(   3) = (   0.8663890   0.0857843   0.1351291  )
         4           Mo  tau(   4) = (   0.8560186   0.4753274   0.2873942  )
         5           S   tau(   5) = (   0.6873294   0.3936244   0.4596353  )
         6           S   tau(   6) = (   0.6929804   0.3713468   0.1185692  )
         7           Mo  tau(   7) = (   0.6862796   0.7633098   0.2825370  )
         8           S   tau(   8) = (   0.8545980   0.6708292   0.4486168  )
         9           S   tau(   9) = (   0.8545123   0.6666874   0.1146125  )
        10           Mo  tau(  10) = (   0.8629403   1.0471007   0.3006803  )
        11           S   tau(  11) = (   0.6868280   0.9456650   0.4634891  )
        12           S   tau(  12) = (   0.6998113   0.9568511   0.1205389  )
        13           Mo  tau(  13) = (   0.3618216   0.1847309   0.2935964  )
        14           S   tau(  14) = (   0.5260962   0.0863870   0.4600448  )
        15           S   tau(  15) = (   0.5348379   0.0894875   0.1297123  )
        16           Mo  tau(  16) = (   0.5265817   0.4772436   0.2784130  )
        17           S   tau(  17) = (   0.3624753   0.3882513   0.4525556  )
        18           S   tau(  18) = (   0.3635411   0.3752055   0.1119148  )
        19           Mo  tau(  19) = (   0.3652268   0.7630864   0.2781795  )
        20           S   tau(  20) = (   0.5269494   0.6690381   0.1096838  )
        21           Mo  tau(  21) = (   0.5300192   1.0470394   0.2900995  )
        22           S   tau(  22) = (   0.3670346   0.9457522   0.4574073  )
        23           S   tau(  23) = (   0.3604225   0.9585725   0.1159032  )
        24           Mo  tau(  24) = (   0.0313099   0.1847895   0.3013130  )
        25           S   tau(  25) = (   0.1956761   0.0838230   0.4650863  )
        26           S   tau(  26) = (   0.1967693   0.0903508   0.1278874  )
        27           Mo  tau(  27) = (   0.1967578   0.4753919   0.2813011  )
        28           S   tau(  28) = (   0.0287851   0.3864324   0.4586755  )
        29           S   tau(  29) = (   0.0244514   0.3729871   0.1239344  )
        30           Mo  tau(  30) = (   0.0286728   0.7631204   0.2856894  )
        31           S   tau(  31) = (   0.2011512   0.6675435   0.4465001  )
        32           S   tau(  32) = (   0.1969214   0.6672839   0.1104564  )
        33           Mo  tau(  33) = (   0.1950294   1.0511147   0.2932237  )
        34           S   tau(  34) = (   0.0312912   0.9612169   0.4667423  )
        35           S   tau(  35) = (   0.0292670   0.9563028   0.1216485  )
        36           O   tau(  36) = (   0.0000000   0.0000000   0.5650415  )

     number of k points=     1  Gaussian smearing, width (Ry)=  0.0100
                       cart. coord. in units 2pi/alat
        k(    1) = (   0.0000000   0.0000000   0.0000000), wk =   2.0000000

     Initial potential from superposition of free atoms

     starting charge     311.9873, renormalised to     312.0000

     negative rho (up, down):  2.752E-04 0.000E+00

Carrying out rVV10 run using the following parameters:
Nqs =      20    Nr_points =    1024   r_max =   100.000
b_value =  6.30000    beta =  0.00901
     q_mesh =  0.00010000  0.00030000  0.00058939  0.00100810
               0.00161396  0.00249058  0.00375900  0.00559430
               0.00824984  0.01209221  0.01765183  0.02569619
               0.03733578  0.05417739  0.07854596  0.11380545
               0.16482331  0.23864234  0.34545298  0.50000000

Gradients computed in Reciprocal space

     Starting wfcs are  216 randomized atomic wfcs
     Checking if some PAW data can be deallocated...

     Self-consistent Calculation

     iteration #  1     ecut=    80.00 Ry     beta= 0.70
     Davidson diagonalization with overlap
     ethr =  1.00E-02,  avg # of iterations =  2.0

     Threshold (ethr) on eigenvalues was too large:
     Diagonalizing with lowered threshold

     Davidson diagonalization with overlap
     ethr =  4.37E-04,  avg # of iterations =  3.0

[...]

     total energy              =   -2246.17754341 Ry
     estimated scf accuracy    <       1.62465610 Ry

[...]

     iteration #  4     ecut=    80.00 Ry     beta= 0.70
     Davidson diagonalization with overlap
     c_bands:  1 eigenvalues not converged
     ethr =  6.80E-05,  avg # of iterations = 20.0

[...]

     End of self-consistent calculation

          k = 0.0000 0.0000 0.0000 (105382 PWs)   bands (ev):

   -62.9905 -62.9504 -62.9468 -62.9330 -62.8867 -62.8770 -62.8648 -62.8531
   -62.8346 -62.8248 -62.7751 -62.7254 -37.3153 -37.2701 -37.2317 -37.2228
   -37.1930 -37.1790 -37.1679 -37.1457 -37.1295 -37.1276 -37.1246 -37.1101
   -37.1039 -37.0967 -37.0623 -37.0556 -37.0489 -37.0440 -37.0317 -37.0255
   -37.0221 -37.0090 -37.0072 -36.9980 -36.9884 -36.9717 -36.9559 -36.9478
   -36.9221 -36.9042 -36.8863 -36.8768 -36.8552 -36.8320 -36.8037 -36.7659
   -20.8140 -15.9735 -15.3295 -15.1926 -15.0907 -14.9096 -14.8484 -14.7964
   -14.5563 -14.5333 -14.4827 -14.4482 -14.4205 -14.3558 -14.2882 -14.2319
   -14.1954 -14.1642 -14.1093 -14.0690 -13.9186 -13.8980 -13.8761 -13.8541
    -8.1909  -7.7839  -7.6180  -7.4901  -7.3833  -7.3505  -7.3075  -7.2485
    -7.2164  -7.1465  -6.8878  -6.8699  -6.8208  -6.7202  -6.6859  -6.6164
    -6.5438  -6.4488  -6.4314  -6.3369  -6.1743  -6.0697  -5.9677  -5.9298
    -5.9080  -5.8458  -5.8051  -5.7395  -5.7290  -5.7034  -5.6355  -5.6196
    -5.5641  -5.5038  -5.4380  -5.3835  -5.3331  -5.1708  -5.0977  -5.0594
    -5.0310  -4.9879  -4.9005  -4.7268  -4.6829  -4.5811  -4.4404  -4.4275
    -4.3529  -4.2994  -4.1965  -4.1528  -3.9682  -3.9433  -3.8797  -3.8446
    -3.8064  -3.7719  -3.6993  -3.6572  -3.6122  -3.5957  -3.5214  -3.4947
    -3.4599  -3.4344  -3.2963  -3.2402  -3.0341  -2.9889  -2.9079  -2.8623
    -2.8482  -2.8100  -2.7770  -2.7425  -2.6995  -2.6454  -2.3989  -2.3201
    -2.0560  -1.9709  -1.9400  -1.8326  -1.4282  -0.8390  -0.7709  -0.2300
    -0.1968  -0.1253  -0.0758   0.0596   0.0849   0.1406   0.1537   0.2126
     0.2382   0.3022   0.3633   0.4660   0.4872   0.5028   0.5389   0.5607
     0.6421   0.6905   0.6950   0.7320   0.7847   0.8222   0.8659   0.9080
     0.9685   0.9934   1.2130

     the Fermi energy is    -1.6295 ev

!    total energy              =   -2246.19465136 Ry
     estimated scf accuracy    <       0.00000067 Ry
     smearing contrib. (-TS)   =      -0.00128018 Ry
     internal energy E=F+TS    =   -2246.19337118 Ry

     The total energy is F=E-TS. E is the sum of the following terms:
[...]
     atom    3 type  2   force =     0.02808555   -0.07869203  -38.12689267
     atom    4 type  1   force =    -0.12388670    1.24065431   -0.65274295
     atom    5 type  2   force =    -1.31505790    2.13793064   37.84991959
     atom    6 type  2   force =     0.16542183   -0.19266449  -38.73222324
     atom    7 type  1   force =    -2.78906884   -2.30951224    1.87548117
     atom    8 type  2   force =    -1.12376333    0.18358346   37.91277236
     atom    9 type  2   force =     0.32703597   -0.00970080  -38.31356113
     atom   10 type  1   force =    -0.44010023   -1.57509030   -1.22728018
     atom   11 type  2   force =    -0.99865915   -2.30878924   37.95561899
     atom   12 type  2   force =     0.11143903    0.22194238  -38.67039317
     atom   13 type  1   force =     0.16467531    1.04099786    1.43383387
     atom   14 type  2   force =    -0.99560281   -0.15072530   37.89051295
     atom   15 type  2   force =    -0.04488964   -0.12308210  -38.26093526
     atom   16 type  1   force =    -0.41151548    3.80385798    1.30839555
     atom   17 type  2   force =     0.79648311    1.44817368   38.06292148
     atom   18 type  2   force =    -0.16170901   -0.26065575  -38.36931939
     atom   19 type  1   force =     2.59700200   -1.96766752    1.65496201
     atom   20 type  2   force =    -0.03717940   -0.03471786  -39.11069354
     atom   21 type  1   force =    -0.55295730   -0.79654332   -0.35882955
     atom   22 type  2   force =     0.42593282   -1.71525176   38.20892967
     atom   23 type  2   force =    -0.19049306    0.21148524  -38.37923434
     atom   24 type  1   force =     0.96125298    0.94848585   -1.78564396
     atom   25 type  2   force =     1.17618413   -0.01115790   38.17643253
     atom   26 type  2   force =     0.00397848   -0.07516552  -38.32297763
     atom   27 type  1   force =     0.52025466    0.86654059   -0.46259716
     atom   28 type  2   force =     0.52755048    1.52831327   37.59505388
     atom   29 type  2   force =     0.00707834    0.06957836  -38.41907514
     atom   30 type  1   force =     0.18286806   -1.14405520    0.61075206
     atom   31 type  2   force =     1.27278517    0.17256843   38.00804043
     atom   32 type  2   force =    -0.28774238   -0.02223865  -38.41323321
     atom   33 type  1   force =     1.02061157   -0.99574370    1.30846359
     atom   34 type  2   force =     0.57908492   -1.45556776   38.19008663
     atom   35 type  2   force =     0.07816531    0.07405100  -38.35101898
     atom   36 type  3   force =    -0.11900956    0.12136915   50.49473390
     The local contribution  to forces
     atom    1 type  1   force =     1.11208646   -1.24161357    1.25443341
     atom    2 type  2   force =     0.22927506    0.06610776  -28.97262899
     atom    3 type  2   force =    -0.02590926    0.08926104   37.86928992
     atom    4 type  1   force =     0.11883587   -1.24370140    0.65025372
     atom    5 type  2   force =     1.31059583   -2.11752114  -37.61255579
     atom    6 type  2   force =    -0.16513976    0.19472968   38.48773956
     atom    7 type  1   force =     2.80807771    2.31077515   -1.84867449
     atom    8 type  2   force =     1.11772354   -0.18384193  -37.66590630
     atom    9 type  2   force =    -0.32154946    0.02256851   38.06331175
     atom   10 type  1   force =     0.44031619    1.55829468    1.21216999
     atom   11 type  2   force =     0.99230961    2.30796555  -37.71371883
     atom   12 type  2   force =    -0.10452608   -0.20873147   38.42661572
     atom   13 type  1   force =    -0.16532659   -1.06603747   -1.43618941
     atom   14 type  2   force =     0.99547448    0.15491306  -37.63713530
     atom   15 type  2   force =     0.04555490    0.13299341   38.02110005
     atom   16 type  1   force =     0.41154740   -3.83953455   -1.27345780
     atom   17 type  2   force =    -0.79267557   -1.42466729  -37.82530516
     atom   18 type  2   force =     0.16190077    0.26588677   38.12207836
     atom   19 type  1   force =    -2.61205925    1.96418954   -1.62954038
     atom   20 type  2   force =     0.03798148    0.04709460   38.86958105
     atom   21 type  1   force =     0.55200378    0.76779948    0.35569616
     atom   22 type  2   force =    -0.42152100    1.71390203  -37.96748070
     atom   23 type  2   force =     0.18314227   -0.19847698   38.13415249
     atom   24 type  1   force =    -0.95221785   -0.95519453    1.76713177
     atom   25 type  2   force =    -1.17708897    0.01773127  -37.92575812
     atom   26 type  2   force =    -0.00703027    0.08480654   38.08017228
     atom   27 type  1   force =    -0.51684634   -0.87245397    0.45666370
     atom   28 type  2   force =    -0.52716700   -1.51554248  -37.33888079
     atom   29 type  2   force =    -0.00741395   -0.06239658   38.17272759
     atom   30 type  1   force =    -0.18772151    1.12539821   -0.61412441
     atom   31 type  2   force =    -1.26422300   -0.17296377  -37.76089589
     atom   32 type  2   force =     0.28171415    0.03416853   38.16520493
     atom   33 type  1   force =    -1.01839951    0.98893434   -1.31079717
     atom   34 type  2   force =    -0.57700354    1.46114415  -37.93299879
     atom   35 type  2   force =    -0.07770301   -0.06125016   38.10673226
     atom   36 type  3   force =     0.13410227   -0.10778019  -48.19859566
     The core correction contribution to forces
     atom    1 type  1   force =     0.00000000    0.00000000    0.00000000
     atom    2 type  2   force =    -0.00032211   -0.00029528   -0.00976348
     atom    3 type  2   force =     0.00011368    0.00049628   -0.02133266
     atom    4 type  1   force =     0.00000000    0.00000000    0.00000000
     atom    5 type  2   force =    -0.00034302    0.00093236    0.02069598
     atom    6 type  2   force =     0.00017563   -0.00025445   -0.02082850
     atom    7 type  1   force =     0.00000000    0.00000000    0.00000000
     atom    8 type  2   force =    -0.00026008    0.00030792    0.02096350
     atom    9 type  2   force =     0.00056207    0.00070147   -0.02103600
     atom   10 type  1   force =     0.00000000    0.00000000    0.00000000
     atom   11 type  2   force =    -0.00012745   -0.00021914    0.02093608
     atom   12 type  2   force =     0.00056472    0.00094865   -0.02084863
     atom   13 type  1   force =     0.00000000    0.00000000    0.00000000
     atom   14 type  2   force =     0.00005421   -0.00015476    0.02137358
     atom   15 type  2   force =     0.00006088    0.00040927   -0.02059091
     atom   16 type  1   force =     0.00000000    0.00000000    0.00000000
     atom   17 type  2   force =     0.00039904    0.00108353    0.02056776
     atom   18 type  2   force =    -0.00009037   -0.00020719   -0.02090468
     atom   19 type  1   force =     0.00000000    0.00000000    0.00000000
     atom   20 type  2   force =     0.00009587    0.00055474   -0.02120720
     atom   21 type  1   force =     0.00000000    0.00000000    0.00000000
     atom   22 type  2   force =     0.00003971   -0.00034705    0.02073909
     atom   23 type  2   force =    -0.00065429    0.00098198   -0.02089514
     atom   24 type  1   force =     0.00000000    0.00000000    0.00000000
     atom   25 type  2   force =    -0.00014676    0.00018697    0.02134283
     atom   26 type  2   force =    -0.00016823    0.00039031   -0.02077817
     atom   27 type  1   force =     0.00000000    0.00000000    0.00000000
     atom   28 type  2   force =     0.00001858    0.00086088    0.02146369
     atom   29 type  2   force =    -0.00005499    0.00026603   -0.02079067
     atom   30 type  1   force =     0.00000000    0.00000000    0.00000000
     atom   31 type  2   force =     0.00044637    0.00028173    0.02096986
     atom   32 type  2   force =    -0.00064269    0.00061970   -0.02101465
     atom   33 type  1   force =     0.00000000    0.00000000    0.00000000
     atom   34 type  2   force =     0.00014045    0.00023489    0.02160292
     atom   35 type  2   force =     0.00006548    0.00086872   -0.02090136
     atom   36 type  3   force =     0.00015667    0.00012934    0.02462105
     The Hubbard contrib.    to forces
     atom    1 type  1   force =     0.00000000    0.00000000    0.00000000
     atom    2 type  2   force =     0.00000000    0.00000000    0.00000000
     atom    3 type  2   force =     0.00000000    0.00000000    0.00000000
     atom    4 type  1   force =     0.00000000    0.00000000    0.00000000
     atom    5 type  2   force =     0.00000000    0.00000000    0.00000000
     atom    6 type  2   force =     0.00000000    0.00000000    0.00000000
     atom    7 type  1   force =     0.00000000    0.00000000    0.00000000
     atom    8 type  2   force =     0.00000000    0.00000000    0.00000000
     atom    9 type  2   force =     0.00000000    0.00000000    0.00000000
     atom   10 type  1   force =     0.00000000    0.00000000    0.00000000
     atom   11 type  2   force =     0.00000000    0.00000000    0.00000000
     atom   12 type  2   force =     0.00000000    0.00000000    0.00000000
     atom   13 type  1   force =     0.00000000    0.00000000    0.00000000
     atom   14 type  2   force =     0.00000000    0.00000000    0.00000000
     atom   15 type  2   force =     0.00000000    0.00000000    0.00000000
     atom   16 type  1   force =     0.00000000    0.00000000    0.00000000
     atom   17 type  2   force =     0.00000000    0.00000000    0.00000000
     atom   18 type  2   force =     0.00000000    0.00000000    0.00000000
     atom   19 type  1   force =     0.00000000    0.00000000    0.00000000
     atom   20 type  2   force =     0.00000000    0.00000000    0.00000000
     atom   21 type  1   force =     0.00000000    0.00000000    0.00000000
     atom   22 type  2   force =     0.00000000    0.00000000    0.00000000
     atom   23 type  2   force =     0.00000000    0.00000000    0.00000000
     atom   24 type  1   force =     0.00000000    0.00000000    0.00000000
     atom   25 type  2   force =     0.00000000    0.00000000    0.00000000
     atom   26 type  2   force =     0.00000000    0.00000000    0.00000000
     atom   27 type  1   force =     0.00000000    0.00000000    0.00000000
     atom   28 type  2   force =     0.00000000    0.00000000    0.00000000
     atom   29 type  2   force =     0.00000000    0.00000000    0.00000000
     atom   30 type  1   force =     0.00000000    0.00000000    0.00000000
     atom   31 type  2   force =     0.00000000    0.00000000    0.00000000
     atom   32 type  2   force =     0.00000000    0.00000000    0.00000000
     atom   33 type  1   force =     0.00000000    0.00000000    0.00000000
     atom   34 type  2   force =     0.00000000    0.00000000    0.00000000
     atom   35 type  2   force =     0.00000000    0.00000000    0.00000000
     atom   36 type  3   force =     0.00000000    0.00000000    0.00000000
     The SCF correction term to forces
     atom    1 type  1   force =    -0.00000540   -0.00001397    0.00006718
     atom    2 type  2   force =    -0.00002442    0.00000851    0.00001504
     atom    3 type  2   force =    -0.00001266   -0.00000169    0.00001309
     atom    4 type  1   force =    -0.00002756   -0.00002876    0.00002616
     atom    5 type  2   force =    -0.00000771   -0.00001931    0.00000798
     atom    6 type  2   force =    -0.00000375   -0.00000458    0.00001938
     atom    7 type  1   force =    -0.00000940    0.00000976    0.00000991
     atom    8 type  2   force =    -0.00001266   -0.00000832    0.00000640
     atom    9 type  2   force =    -0.00000006    0.00000218   -0.00000435
     atom   10 type  1   force =    -0.00002343    0.00002190    0.00001257
     atom   11 type  2   force =    -0.00000648    0.00002005    0.00000925
     atom   12 type  2   force =    -0.00000131    0.00000632    0.00000582
     atom   13 type  1   force =     0.00002918   -0.00000607    0.00004051
     atom   14 type  2   force =     0.00001906    0.00000771    0.00001196
     atom   15 type  2   force =     0.00000504   -0.00000403    0.00001819
     atom   16 type  1   force =     0.00001425   -0.00001956    0.00003959
     atom   17 type  2   force =     0.00001895   -0.00001089    0.00000625
     atom   18 type  2   force =     0.00000597   -0.00000126    0.00001301
     atom   19 type  1   force =     0.00001744    0.00000770   -0.00001290
     atom   20 type  2   force =    -0.00000102   -0.00000170    0.00000363
     atom   21 type  1   force =     0.00001107    0.00003056    0.00002695
     atom   22 type  2   force =     0.00001612    0.00001656    0.00000494
     atom   23 type  2   force =     0.00000416    0.00000506   -0.00000439
     atom   24 type  1   force =    -0.00002201   -0.00000862    0.00003176
     atom   25 type  2   force =     0.00000878    0.00000647    0.00000782
     atom   26 type  2   force =     0.00000318   -0.00000748    0.00000225
     atom   27 type  1   force =     0.00000930   -0.00001793    0.00001234
     atom   28 type  2   force =    -0.00000897   -0.00001219    0.00000732
     atom   29 type  2   force =    -0.00000133    0.00000059    0.00000645
     atom   30 type  1   force =    -0.00000264    0.00001075   -0.00002331
     atom   31 type  2   force =     0.00000400   -0.00000883    0.00000270
     atom   32 type  2   force =    -0.00000040    0.00000361   -0.00000990
     atom   33 type  1   force =     0.00000482    0.00001478   -0.00000345
     atom   34 type  2   force =    -0.00001011    0.00001553    0.00000271
     atom   35 type  2   force =    -0.00000064    0.00000280   -0.00000658
     atom   36 type  3   force =    -0.00004134    0.00001589   -0.00001420

     Total force =     0.007026     Total SCF correction =     0.000165
     Energy error            =      8.7E-05 Ry
     Gradient error          =      2.4E-03 Ry/Bohr

     bfgs converged in  25 scf cycles and  24 bfgs steps
     (criteria: energy <  1.0E-04 Ry, force <  1.0E-02 Ry/Bohr)

     End of BFGS Geometry Optimization

     Final energy             =   -2246.4497826382 Ry

     File ./MoS2-V-O.bfgs deleted, as requested
Begin final coordinates

ATOMIC_POSITIONS (angstrom)
Mo            6.5744246832        1.7576747804        2.7489788250
S             8.1694407013        0.8219923511        4.2733603717
S             8.1737622062        0.8259082834        1.1868077803
Mo            8.1612090287        4.4711662981        2.7167428555
S             6.5578487287        3.6488311525        4.3199439738
S             6.5864811385        3.5610695226        1.1074917458
Mo            6.5491219233        7.1591067386        2.6717403739
S             8.1286217481        6.2843060929        4.3008931941
S             8.1746913770        6.3036889922        1.1148697728
Mo            8.1729830047        9.8840682984        2.7508947253
S             6.5602391881        8.9213740649        4.3258197613
S             6.6137696114        8.9940214621        1.1174468045
Mo            3.4617671766        1.7229757476        2.7617049378
S             5.0357940680        0.7935055179        4.3446598393
S             5.0230205758        0.8104856725        1.1617441904
Mo            5.0323991662        4.5237322794        2.6638773108
S             3.5024102673        3.6403449003        4.3120804885
S             3.4761237113        3.5378631668        1.1189660888
Mo            3.5106411357        7.1578823826        2.6642385588
S             5.0330711772        6.2900688105        1.0440733173
Mo            5.0340410262        9.8828223240        2.7282524891
S             3.5050001080        8.9238737371        4.3196391879
S             3.4374323646        9.0067347606        1.1242749582
Mo            0.3248149939        1.7416538013        2.7513209817
S             1.8832665390        0.8252210255        4.3677659033
S             1.8962296715        0.8143751362        1.1643168356
Mo            1.9034260965        4.4732798177        2.7117926694
S             0.3076511281        3.5870632952        4.3227500930
S             0.3054854961        3.5557432169        1.1379021663
Mo            0.3106406251        7.1982389945        2.7300127315
S             1.9459792935        6.2836390362        4.2967874159
S             1.8903846466        6.3002435384        1.1079588787
Mo            1.8877749018        9.9151537555        2.7642663399
S             0.3036548298        9.0020475813        4.3593218843
S             0.3156007291        9.0239398437        1.1552769602
O            -1.2768560551        0.8368500317        5.7723654608
End final coordinates

     Writing all to output data dir ./MoS2-V-O.save/

     General routines

     Parallel routines

   This run was terminated on:  12:53:40   4Nov2023

   JOB DONE.