     Program PWSCF v.7.2 starts on  1Nov2023 at 22: 8:27

     Waiting for input...
     Reading input from standard input
Warning: card &CELL ignored
Warning: card CELL_DYNAMICS = 'BFGS', ignored
Warning: card CELL_DOFREE = '2DXY' ignored
Warning: card / ignored

     Current dimensions of program PWSCF are:
     Max number of different atomic species (ntypx) = 10
     Max number of k-points (npk) =  40000
     Max angular momentum in pseudopotentials (lmaxx) =  4
     file O.pbe-n-kjpaw_psl.0.1.UPF: wavefunction(s)  2P renormalized

     IMPORTANT: XC functional enforced from input :
     Exchange-correlation= RVV10
                           (   1   4  13   4  26   0   0)
     Any further DFT definition will be discarded
     Please, verify this is what you really want

     gamma-point specific algorithms are used
     signal trapping enabled: kill the code with -SIGUSR1 to stop cleanly the simulation

     R & G space division:  proc/nbgrp/npool/nimage =      48
     Subspace diagonalization in iterative solution of the eigenvalue problem:
     one sub-group per band group will be used

     Using Slab Decomposition

     bravais-lattice index     =            0
     lattice parameter (alat)  =      17.8707  a.u.
     unit-cell volume          =   17436.2743 (a.u.)^3
     number of atoms/cell      =           36
     number of atomic types    =            3
     number of electrons       =       312.00
     number of Kohn-Sham states=          187
     kinetic-energy cutoff     =      80.0000  Ry
     charge density cutoff     =     650.0000  Ry
     scf convergence threshold =      1.0E-06
     mixing beta               =       0.7000
     number of iterations used =            8  local-TF  mixing
     energy convergence thresh.=      1.0E-04
     force convergence thresh. =      1.0E-02
     Exchange-correlation= RVV10
                           (   1   4  13   4  26   0   0)
     nstep                     =          200

     celldm(1)=  17.870686  celldm(2)=   0.000000  celldm(3)=   0.000000
     celldm(4)=   0.000000  celldm(5)=   0.000000  celldm(6)=   0.000000

     crystal axes: (cart. coord. in units of alat)
               a(1) = (   1.000000   0.000000   0.000000 )
               a(2) = (   0.000000   1.155671   0.000000 )
               a(3) = (   0.000000   0.000000   2.643601 )

     reciprocal axes: (cart. coord. in units 2 pi/alat)
               b(1) = (  1.000000  0.000000  0.000000 )
               b(2) = (  0.000000  0.865298  0.000000 )
               b(3) = (  0.000000  0.000000  0.378272 )

     PseudoPot. # 1 for Mo read from file:
     ../pseudo/Mo_ONCV_PBE-1.0.oncvpsp.upf
     MD5 check sum: 1b5d28e075c9ccadda658a603575cd1f
     Pseudo is Norm-conserving, Zval = 14.0
     Generated using ONCVPSP code by D. R. Hamann
     Using radial grid of 1526 points,  6 beta functions with:
                l(1) =   0
                l(2) =   0
                l(3) =   1
                l(4) =   1
                l(5) =   2
                l(6) =   2

     PseudoPot. # 2 for S  read from file:
     ../pseudo/s_pbe_v1.4.uspp.F.UPF
     MD5 check sum: 88d86576ff6df21479756cfb9bdac1df
     Pseudo is Ultrasoft + core correction, Zval =  6.0
     Generated by new atomic code, or converted to UPF format
     Using radial grid of  907 points,  6 beta functions with:
                l(1) =   0
                l(2) =   0
                l(3) =   1
                l(4) =   1
                l(5) =   2
                l(6) =   2
     Q(r) pseudized with  8 coefficients,  rinner =    1.300   1.300   1.300
                                                       1.300   1.300

     PseudoPot. # 3 for O  read from file:
     ../pseudo/O.pbe-n-kjpaw_psl.0.1.UPF
     MD5 check sum: 0234752ac141de4415c5fc33072bef88
     Pseudo is Projector augmented-wave + core cor, Zval =  6.0
     Generated using "atomic" code by A. Dal Corso  v.5.0.99 svn rev. 10869
     Shape of augmentation charge: BESSEL
     Using radial grid of 1095 points,  4 beta functions with:
                l(1) =   0
                l(2) =   0
                l(3) =   1
                l(4) =   1
     Q(r) pseudized with 0 coefficients

     atomic species   valence    mass     pseudopotential
        Mo            14.00    95.94000     Mo( 1.00)
        S              6.00    32.06500     S ( 1.00)
        O              6.00    15.99940     O ( 1.00)

     No symmetry found

   Cartesian axes

     site n.     atom                  positions (alat units)
         1           Mo  tau(   1) = (   0.6952221   0.1890506   0.2985846  )
         2           S   tau(   2) = (   0.8646417   0.0856217   0.4689279  )
         3           S   tau(   3) = (   0.8663890   0.0857843   0.1351291  )
         4           Mo  tau(   4) = (   0.8560186   0.4753274   0.2873942  )
         5           S   tau(   5) = (   0.6873294   0.3936244   0.4596353  )
         6           S   tau(   6) = (   0.6929804   0.3713468   0.1185692  )
         7           Mo  tau(   7) = (   0.6862796   0.7633098   0.2825370  )
         8           S   tau(   8) = (   0.8545980   0.6708292   0.4486168  )
         9           S   tau(   9) = (   0.8545123   0.6666874   0.1146125  )
        10           Mo  tau(  10) = (   0.8629403   1.0471007   0.3006803  )
        11           S   tau(  11) = (   0.6868280   0.9456650   0.4634891  )
        12           S   tau(  12) = (   0.6998113   0.9568511   0.1205389  )
        13           Mo  tau(  13) = (   0.3618216   0.1847309   0.2935964  )
        14           S   tau(  14) = (   0.5260962   0.0863870   0.4600448  )
        15           S   tau(  15) = (   0.5348379   0.0894875   0.1297123  )
        16           Mo  tau(  16) = (   0.5265817   0.4772436   0.2784130  )
        17           S   tau(  17) = (   0.3624753   0.3882513   0.4525556  )
        18           S   tau(  18) = (   0.3635411   0.3752055   0.1119148  )
        19           Mo  tau(  19) = (   0.3652268   0.7630864   0.2781795  )
        20           S   tau(  20) = (   0.5269494   0.6690381   0.1096838  )
        21           Mo  tau(  21) = (   0.5300192   1.0470394   0.2900995  )
        22           S   tau(  22) = (   0.3670346   0.9457522   0.4574073  )
        23           S   tau(  23) = (   0.3604225   0.9585725   0.1159032  )
        24           Mo  tau(  24) = (   0.0313099   0.1847895   0.3013130  )
        25           S   tau(  25) = (   0.1956761   0.0838230   0.4650863  )
        26           S   tau(  26) = (   0.1967693   0.0903508   0.1278874  )
        27           Mo  tau(  27) = (   0.1967578   0.4753919   0.2813011  )
        28           S   tau(  28) = (   0.0287851   0.3864324   0.4586755  )
        29           S   tau(  29) = (   0.0244514   0.3729871   0.1239344  )
        30           Mo  tau(  30) = (   0.0286728   0.7631204   0.2856894  )
        31           S   tau(  31) = (   0.2011512   0.6675435   0.4465001  )
        32           S   tau(  32) = (   0.1969214   0.6672839   0.1104564  )
        33           Mo  tau(  33) = (   0.1950294   1.0511147   0.2932237  )
        34           S   tau(  34) = (   0.0312912   0.9612169   0.4667423  )
        35           S   tau(  35) = (   0.0292670   0.9563028   0.1216485  )
        36           O   tau(  36) = (   0.6666667   1.0272628   0.5656742  )

     number of k points=     1  Gaussian smearing, width (Ry)=  0.0100
                       cart. coord. in units 2pi/alat
        k(    1) = (   0.0000000   0.0000000   0.0000000), wk =   2.0000000

     Initial potential from superposition of free atoms

     starting charge     311.9873, renormalised to     312.0000

     negative rho (up, down):  2.756E-04 0.000E+00

Carrying out rVV10 run using the following parameters:
Nqs =      20    Nr_points =    1024   r_max =   100.000
b_value =  6.30000    beta =  0.00901
     q_mesh =  0.00010000  0.00030000  0.00058939  0.00100810
               0.00161396  0.00249058  0.00375900  0.00559430
               0.00824984  0.01209221  0.01765183  0.02569619
               0.03733578  0.05417739  0.07854596  0.11380545
               0.16482331  0.23864234  0.34545298  0.50000000

Gradients computed in Reciprocal space

     Starting wfcs are  216 randomized atomic wfcs
     Checking if some PAW data can be deallocated...

     Self-consistent Calculation

     iteration #  1     ecut=    80.00 Ry     beta= 0.70
     Davidson diagonalization with overlap
     ethr =  1.00E-02,  avg # of iterations =  2.0

     Threshold (ethr) on eigenvalues was too large:
     Diagonalizing with lowered threshold

     Davidson diagonalization with overlap
     ethr =  4.76E-04,  avg # of iterations =  4.0

[...]

     total energy              =   -2246.11302381 Ry
     estimated scf accuracy    <       1.73009481 Ry

[...]

     End of self-consistent calculation

          k = 0.0000 0.0000 0.0000 (105382 PWs)   bands (ev):

   -62.9265 -62.9014 -62.8840 -62.8620 -62.8419 -62.8375 -62.8279 -62.8228
   -62.8168 -62.8027 -62.6629 -62.6389 -37.2575 -37.2159 -37.1837 -37.1702
   -37.1393 -37.1148 -37.1042 -37.0884 -37.0740 -37.0685 -37.0616 -37.0463
   -37.0349 -37.0322 -37.0262 -37.0178 -37.0084 -37.0029 -36.9968 -36.9923
   -36.9869 -36.9799 -36.9734 -36.9512 -36.9419 -36.9133 -36.9024 -36.8905
   -36.8519 -36.8426 -36.8123 -36.8084 -36.7893 -36.7833 -36.7672 -36.6933
   -26.5881 -15.9448 -15.1643 -15.1429 -14.9686 -14.9099 -14.7389 -14.5148
   -14.4913 -14.4626 -14.4047 -14.3913 -14.3329 -14.2978 -14.2366 -14.1426
   -14.1216 -14.1085 -14.0356 -13.9299 -13.8690 -13.8674 -13.8146 -13.2077
    -9.5060  -9.3492  -8.2791  -7.5857  -7.4480  -7.2911  -7.2649  -7.2282
    -7.1271  -7.0937  -7.0591  -6.8029  -6.7795  -6.7340  -6.6593  -6.6106
    -6.5111  -6.4216  -6.3966  -6.2667  -6.1100  -6.0563  -5.9619  -5.8933
    -5.8280  -5.8041  -5.7656  -5.7425  -5.6789  -5.6684  -5.6279  -5.5554
    -5.5320  -5.4931  -5.4023  -5.3390  -5.2620  -5.1815  -5.1060  -5.0366
    -4.9982  -4.9587  -4.9284  -4.8561  -4.7614  -4.6399  -4.5161  -4.3277
    -4.2812  -4.2436  -4.1822  -4.1091  -4.0603  -3.9852  -3.8802  -3.7741
    -3.7480  -3.7189  -3.6487  -3.6049  -3.5865  -3.5124  -3.4809  -3.4414
    -3.4338  -3.3772  -3.2537  -3.2242  -3.1926  -3.0109  -2.9882  -2.8281
    -2.8004  -2.7265  -2.7075  -2.6746  -2.6520  -2.6150  -2.4509  -2.3740
    -2.2016  -2.0422  -1.9745  -1.8688  -1.0689  -0.7410  -0.3147  -0.1537
    -0.1149  -0.0571  -0.0427   0.0947   0.1488   0.1814   0.2720   0.3071
     0.3457   0.3892   0.4302   0.4594   0.5110   0.5567   0.5628   0.6549
     0.6800   0.7354   0.7674   0.7881   0.8118   0.8525   0.9220   0.9674
     0.9797   1.1060   1.2989

     the Fermi energy is    -1.4688 ev

!    total energy              =   -2246.13560891 Ry
     estimated scf accuracy    <       0.00000052 Ry
     smearing contrib. (-TS)   =      -0.00000200 Ry
     internal energy E=F+TS    =   -2246.13560691 Ry

     The total energy is F=E-TS. E is the sum of the following terms:
     one-electron contribution =  -18466.46278146 Ry
     hartree contribution      =    9221.61579109 Ry
     xc contribution           =    -392.53627268 Ry
     ewald contribution        =    7401.08529004 Ry
[...]
     atom    3 type  2   force =     0.09577247    0.12308576  -38.47432769
     atom    4 type  1   force =     0.20394551   -0.23528063    0.48304358
     atom    5 type  2   force =    -0.85296823    0.99700005   38.10137685
     atom    6 type  2   force =     0.27163813   -0.27727162  -38.43996409
     atom    7 type  1   force =    -2.82900642   -2.78082102   -0.50947465
     atom    8 type  2   force =    -0.53032045   -0.90282347   37.92422334
     atom    9 type  2   force =     0.47541050   -0.08304050  -38.47067256
     atom   10 type  1   force =     0.59896906    0.22834192   -1.68252148
     atom   11 type  2   force =    -0.44082282   -1.60704910   28.42797656
     atom   12 type  2   force =     0.22663972    0.14288244  -38.53877171
     atom   13 type  1   force =    -0.28579575    1.21047322    0.60203528
     atom   14 type  2   force =    -0.58507438    1.04094860   37.82259411
     atom   15 type  2   force =    -0.02122269    0.07457026  -38.52490634
     atom   16 type  1   force =    -0.39406852    2.92280216    0.73796557
     atom   17 type  2   force =     0.67965731    1.05665618   38.09959500
     atom   18 type  2   force =    -0.29162441   -0.22614951  -38.47888335
     atom   19 type  1   force =     2.13065857   -2.51728450    1.61294968
     atom   20 type  2   force =    -0.11412306   -0.08801719  -39.28563938
     atom   21 type  1   force =    -1.02754507    0.24575436   -3.45082091
     atom   22 type  2   force =    -0.59450366   -1.40388199   37.73647433
     atom   23 type  2   force =    -0.23287931    0.19108645  -38.72436920
     atom   24 type  1   force =     0.46111426    1.01088605    0.71706921
     atom   25 type  2   force =     0.19031562    0.40169682   38.35888342
     atom   26 type  2   force =    -0.08505498    0.06339827  -38.12759145
     atom   27 type  1   force =     0.16421749    0.16532160    0.24302445
     atom   28 type  2   force =     0.15807854    0.39738163   38.05396893
     atom   29 type  2   force =     0.03332644    0.01155601  -37.96050389
     atom   30 type  1   force =     0.60331507   -1.29072152    1.60835760
     atom   31 type  2   force =     1.18210192   -0.18392276   38.14380574
     atom   32 type  2   force =    -0.36911684   -0.12594627  -38.15791733
     atom   33 type  1   force =     0.46360268   -0.04824059    1.22066385
     atom   34 type  2   force =     1.03278206   -0.39515059   38.17795476
     atom   35 type  2   force =     0.05237025   -0.02260201  -38.28932085
     atom   36 type  3   force =    -0.57587173   -0.81567826   50.11662297
     The local contribution  to forces
     atom    1 type  1   force =     0.14756849   -1.61388676   -0.76632280
     atom    2 type  2   force =    -0.34809490   -1.11563045  -37.90369182
     atom    3 type  2   force =    -0.09419097   -0.11270607   38.23182947
     atom    4 type  1   force =    -0.21234984    0.23097585   -0.48479541
     atom    5 type  2   force =     0.84783773   -0.97547970  -37.86482947
     atom    6 type  2   force =    -0.27146625    0.28226402   38.19325589
     atom    7 type  1   force =     2.84540390    2.76783215    0.51994495
     atom    8 type  2   force =     0.52853875    0.89642624  -37.67461880
     atom    9 type  2   force =    -0.46824297    0.09627854   38.22271152
     atom   10 type  1   force =    -0.59064479   -0.23315394    1.66365336
     atom   11 type  2   force =     0.45614905    1.58943739  -28.71687983
     atom   12 type  2   force =    -0.21923263   -0.13071137   38.28457413
     atom   13 type  1   force =     0.28252788   -1.23466758   -0.59691969
     atom   14 type  2   force =     0.58446266   -1.03470319  -37.57085254
     atom   15 type  2   force =     0.02080835   -0.06493952   38.28432591
     atom   16 type  1   force =     0.39946099   -2.95072278   -0.70477665
     atom   17 type  2   force =    -0.67588039   -1.03665928  -37.86310623
     atom   18 type  2   force =     0.29201679    0.22962515   38.23395427
     atom   19 type  1   force =    -2.14467657    2.51053292   -1.59005214
     atom   20 type  2   force =     0.11302445    0.10110621   39.04297635
     atom   21 type  1   force =     1.01806311   -0.25610118    3.42703337
     atom   22 type  2   force =     0.59884401    1.39903404  -37.49276780
     atom   23 type  2   force =     0.22555831   -0.17706893   38.48130835
     atom   24 type  1   force =    -0.46095446   -1.02752996   -0.72023631
     atom   25 type  2   force =    -0.19043667   -0.39065162  -38.10903190
     atom   26 type  2   force =     0.08282491   -0.05077702   37.87948909
     atom   27 type  1   force =    -0.15921138   -0.17045837   -0.24463325
     atom   28 type  2   force =    -0.15658078   -0.38688277  -37.79805499
     atom   29 type  2   force =    -0.03366387   -0.00208252   37.71311634
     atom   30 type  1   force =    -0.60487332    1.26925718   -1.61202964
     atom   31 type  2   force =    -1.17386309    0.18073965  -37.89730816
     atom   32 type  2   force =     0.36277161    0.13631936   37.90820034
     atom   33 type  1   force =    -0.46097728    0.04049639   -1.23002104
     atom   34 type  2   force =    -1.03413614    0.40264261  -37.92041802
     atom   35 type  2   force =    -0.05276314    0.03426347   38.04721799
     atom   36 type  3   force =     0.55539448    0.86195263  -47.82534892
     The core correction contribution to forces
     atom    1 type  1   force =     0.00000000    0.00000000    0.00000000
     atom    2 type  2   force =     0.00005458    0.00043353    0.02128822
     atom    3 type  2   force =     0.00001685    0.00051229   -0.02082243
     atom    4 type  1   force =     0.00000000    0.00000000    0.00000000
     atom    5 type  2   force =    -0.00051306    0.00097694    0.02052377
     atom    6 type  2   force =     0.00028288   -0.00013666   -0.02089965
     atom    7 type  1   force =     0.00000000    0.00000000    0.00000000
     atom    8 type  2   force =    -0.00011695    0.00004052    0.02127460
     atom    9 type  2   force =     0.00082678    0.00074358   -0.02098539
     atom   10 type  1   force =     0.00000000    0.00000000    0.00000000
     atom   11 type  2   force =     0.00097091   -0.00115391   -0.00987690
     atom   12 type  2   force =     0.00068761    0.00072383   -0.02126920
     atom   13 type  1   force =     0.00000000    0.00000000    0.00000000
     atom   14 type  2   force =    -0.00005593    0.00006363    0.02132648
     atom   15 type  2   force =     0.00007086    0.00047552   -0.02070208
     atom   16 type  1   force =     0.00000000    0.00000000    0.00000000
     atom   17 type  2   force =     0.00038540    0.00084363    0.02052538
     atom   18 type  2   force =    -0.00021086   -0.00020358   -0.02084926
     atom   19 type  1   force =     0.00000000    0.00000000    0.00000000
     atom   20 type  2   force =    -0.00012233    0.00069287   -0.02118358
     atom   21 type  1   force =     0.00000000    0.00000000    0.00000000
     atom   22 type  2   force =     0.00005993   -0.00037007    0.02104943
     atom   23 type  2   force =    -0.00062986    0.00088179   -0.02083635
     atom   24 type  1   force =     0.00000000    0.00000000    0.00000000
     atom   25 type  2   force =     0.00001169    0.00052020    0.02100513
     atom   26 type  2   force =    -0.00020441    0.00054480   -0.02097121
     atom   27 type  1   force =     0.00000000    0.00000000    0.00000000
     atom   28 type  2   force =     0.00011753    0.00063787    0.02130889
     atom   29 type  2   force =    -0.00005143    0.00039312   -0.02086115
     atom   30 type  1   force =     0.00000000    0.00000000    0.00000000
     atom   31 type  2   force =     0.00048393    0.00007140    0.02101530
     atom   32 type  2   force =    -0.00070213    0.00070131   -0.02101001
     atom   33 type  1   force =     0.00000000    0.00000000    0.00000000
     atom   34 type  2   force =    -0.00008575    0.00040304    0.02162270
     atom   35 type  2   force =     0.00003210    0.00054414   -0.02080229
     atom   36 type  3   force =    -0.00020533    0.00048421    0.02455284
     The Hubbard contrib.    to forces
     atom    1 type  1   force =     0.00000000    0.00000000    0.00000000
     atom    2 type  2   force =     0.00000000    0.00000000    0.00000000
     atom    3 type  2   force =     0.00000000    0.00000000    0.00000000
     atom    4 type  1   force =     0.00000000    0.00000000    0.00000000
     atom    5 type  2   force =     0.00000000    0.00000000    0.00000000
     atom    6 type  2   force =     0.00000000    0.00000000    0.00000000
     atom    7 type  1   force =     0.00000000    0.00000000    0.00000000
     atom    8 type  2   force =     0.00000000    0.00000000    0.00000000
     atom    9 type  2   force =     0.00000000    0.00000000    0.00000000
     atom   10 type  1   force =     0.00000000    0.00000000    0.00000000
     atom   11 type  2   force =     0.00000000    0.00000000    0.00000000
     atom   12 type  2   force =     0.00000000    0.00000000    0.00000000
     atom   13 type  1   force =     0.00000000    0.00000000    0.00000000
     atom   14 type  2   force =     0.00000000    0.00000000    0.00000000
     atom   15 type  2   force =     0.00000000    0.00000000    0.00000000
     atom   16 type  1   force =     0.00000000    0.00000000    0.00000000
     atom   17 type  2   force =     0.00000000    0.00000000    0.00000000
     atom   18 type  2   force =     0.00000000    0.00000000    0.00000000
     atom   19 type  1   force =     0.00000000    0.00000000    0.00000000
     atom   20 type  2   force =     0.00000000    0.00000000    0.00000000
     atom   21 type  1   force =     0.00000000    0.00000000    0.00000000
     atom   22 type  2   force =     0.00000000    0.00000000    0.00000000
     atom   23 type  2   force =     0.00000000    0.00000000    0.00000000
     atom   24 type  1   force =     0.00000000    0.00000000    0.00000000
     atom   25 type  2   force =     0.00000000    0.00000000    0.00000000
     atom   26 type  2   force =     0.00000000    0.00000000    0.00000000
     atom   27 type  1   force =     0.00000000    0.00000000    0.00000000
     atom   28 type  2   force =     0.00000000    0.00000000    0.00000000
     atom   29 type  2   force =     0.00000000    0.00000000    0.00000000
     atom   30 type  1   force =     0.00000000    0.00000000    0.00000000
     atom   31 type  2   force =     0.00000000    0.00000000    0.00000000
     atom   32 type  2   force =     0.00000000    0.00000000    0.00000000
     atom   33 type  1   force =     0.00000000    0.00000000    0.00000000
     atom   34 type  2   force =     0.00000000    0.00000000    0.00000000
     atom   35 type  2   force =     0.00000000    0.00000000    0.00000000
     atom   36 type  3   force =     0.00000000    0.00000000    0.00000000
     The SCF correction term to forces
     atom    1 type  1   force =    -0.00000002   -0.00002427   -0.00000462
     atom    2 type  2   force =    -0.00000416   -0.00000766    0.00000275
     atom    3 type  2   force =     0.00000454   -0.00000475   -0.00000432
     atom    4 type  1   force =    -0.00000469   -0.00001116   -0.00000838
     atom    5 type  2   force =    -0.00000090   -0.00000743   -0.00000015
     atom    6 type  2   force =    -0.00000070   -0.00000566   -0.00000356
     atom    7 type  1   force =    -0.00000832    0.00005100    0.00000638
     atom    8 type  2   force =     0.00000644    0.00000770   -0.00000933
     atom    9 type  2   force =     0.00000906    0.00000505    0.00000202
     atom   10 type  1   force =    -0.00002525   -0.00000261    0.00000398
     atom   11 type  2   force =    -0.00000260    0.00001686   -0.00002174
     atom   12 type  2   force =    -0.00000425   -0.00000093    0.00001141
     atom   13 type  1   force =     0.00001455   -0.00002075   -0.00001454
     atom   14 type  2   force =     0.00000213   -0.00001230    0.00000414
     atom   15 type  2   force =    -0.00000573   -0.00000687   -0.00000439
     atom   16 type  1   force =     0.00000336   -0.00001554   -0.00001121
     atom   17 type  2   force =     0.00000573   -0.00000901   -0.00000109
     atom   18 type  2   force =     0.00000652   -0.00001077   -0.00000370
     atom   19 type  1   force =     0.00000046    0.00003063   -0.00001697
     atom   20 type  2   force =    -0.00000823    0.00000294   -0.00000465
     atom   21 type  1   force =     0.00002413   -0.00000197    0.00000320
     atom   22 type  2   force =     0.00000433    0.00000961   -0.00000691
     atom   23 type  2   force =    -0.00000083    0.00000551   -0.00000367
     atom   24 type  1   force =    -0.00000299   -0.00002537   -0.00001274
     atom   25 type  2   force =     0.00000023   -0.00000827   -0.00000507
     atom   26 type  2   force =    -0.00000186   -0.00000795   -0.00000670
     atom   27 type  1   force =    -0.00000183   -0.00000903   -0.00000165
     atom   28 type  2   force =    -0.00000229   -0.00000944    0.00000160
     atom   29 type  2   force =    -0.00000384   -0.00001017   -0.00000511
     atom   30 type  1   force =    -0.00000781    0.00002417   -0.00000898
     atom   31 type  2   force =    -0.00000368    0.00000509   -0.00000282
     atom   32 type  2   force =    -0.00000265    0.00001217   -0.00000391
     atom   33 type  1   force =     0.00000141    0.00001148   -0.00001459
     atom   34 type  2   force =    -0.00000131    0.00000422   -0.00000756
     atom   35 type  2   force =     0.00000528    0.00000642   -0.00000108
     atom   36 type  3   force =    -0.00001059    0.00005082   -0.00002367

     Total force =     0.007009     Total SCF correction =     0.000125
     Energy error            =      9.1E-05 Ry
     Gradient error          =      2.9E-03 Ry/Bohr

     bfgs converged in  22 scf cycles and  21 bfgs steps
     (criteria: energy <  1.0E-04 Ry, force <  1.0E-02 Ry/Bohr)

     End of BFGS Geometry Optimization

     Final energy             =   -2246.4455897650 Ry

     File ./MoS2-V-O.bfgs deleted, as requested
Begin final coordinates

ATOMIC_POSITIONS (angstrom)
Mo            6.5566234749        1.7732185125        2.7508442578
S             8.1343432085        0.8758957106        4.3603928926
S             8.1347634273        0.8820174566        1.1508595007
Mo            8.1165499457        4.5219962500        2.7316299799
S             6.5091228700        3.6777911183        4.3116710088
S             6.5525410956        3.5924088386        1.1161647316
Mo            6.5074837058        7.1670526843        2.6707228462
S             8.0585222608        6.3298772630        4.3354725068
S             8.1449421501        6.3374918805        1.1258476064
Mo            8.1591639528        9.9785328889        2.7462899758
S             6.5406817779        8.9918984276        4.2366629941
S             6.5893535151        9.0388575746        1.1393380025
Mo            3.4232039044        1.7740428161        2.7397234945
S             4.9842237326        0.8343845024        4.3359877253
S             4.9916505881        0.8709128388        1.1387790096
Mo            4.9873558014        4.5507015509        2.6568992793
S             3.4623529432        3.6717200665        4.3053999835
S             3.4201120638        3.5873368219        1.1100631247
Mo            3.4646768443        7.2041543974        2.6787255043
S             4.9742430963        6.3258955794        1.0454544226
Mo            4.9750242830        9.9429936598        2.7064483545
S             3.4710273899        8.9797904582        4.3203207153
S             3.3819888613        9.0333426814        1.1153800383
Mo            0.2579674382        1.7702423810        2.7542931626
S             1.8512060242        0.8723198464        4.3507996641
S             1.8375665476        0.8595028932        1.1605967209
Mo            1.8609500384        4.5171054575        2.7229010774
S             0.2639598904        3.6230170999        4.3238448648
S             0.2586115592        3.5951247054        1.1549102816
Mo            0.2542493623        7.2380345763        2.7596727553
S             1.9037895585        6.3260249394        4.3204098498
S             1.8369948612        6.3506446298        1.1320987720
Mo            1.8500748369        9.9504661686        2.7593585776
S             0.2615603255        9.0614468062        4.3587922962
S             0.2741896890        9.0552763197        1.1647471108
O             6.5257826546        9.0340043865        5.7348197316
End final coordinates

     Writing all to output data dir ./MoS2-V-O.save/

     General routines

     Parallel routines

   This run was terminated on:  22:48: 3   1Nov2023

   JOB DONE.