     Program PWSCF v.7.2 starts on  3Nov2023 at 22: 7:19

     Waiting for input...
     Reading input from standard input
Warning: card &CELL ignored
Warning: card CELL_DYNAMICS = 'BFGS', ignored
Warning: card CELL_DOFREE = '2DXY' ignored
Warning: card / ignored

     Current dimensions of program PWSCF are:
     Max number of different atomic species (ntypx) = 10
     Max number of k-points (npk) =  40000
     Max angular momentum in pseudopotentials (lmaxx) =  4

     IMPORTANT: XC functional enforced from input :
     Exchange-correlation= RVV10
                           (   1   4  13   4  26   0   0)
     Any further DFT definition will be discarded
     Please, verify this is what you really want

     gamma-point specific algorithms are used
     signal trapping enabled: kill the code with -SIGUSR1 to stop cleanly the simulation

     R & G space division:  proc/nbgrp/npool/nimage =      48
     Subspace diagonalization in iterative solution of the eigenvalue problem:
     one sub-group per band group will be used

     Using Slab Decomposition

     bravais-lattice index     =            0
     lattice parameter (alat)  =      17.8707  a.u.
     unit-cell volume          =   17436.2743 (a.u.)^3
     number of atoms/cell      =           36
     number of atomic types    =            3
     number of electrons       =       307.00
     number of Kohn-Sham states=          185
     kinetic-energy cutoff     =      80.0000  Ry
     charge density cutoff     =     400.0000  Ry
     scf convergence threshold =      1.0E-06
     mixing beta               =       0.7000
     number of iterations used =            8  local-TF  mixing
     energy convergence thresh.=      1.0E-04
     force convergence thresh. =      1.0E-02
     Exchange-correlation= RVV10
                           (   1   4  13   4  26   0   0)
     nstep                     =          200

     celldm(1)=  17.870686  celldm(2)=   0.000000  celldm(3)=   0.000000
     celldm(4)=   0.000000  celldm(5)=   0.000000  celldm(6)=   0.000000

     crystal axes: (cart. coord. in units of alat)
               a(1) = (   1.000000   0.000000   0.000000 )
               a(2) = (   0.000000   1.155671   0.000000 )
               a(3) = (   0.000000   0.000000   2.643601 )

     reciprocal axes: (cart. coord. in units 2 pi/alat)
               b(1) = (  1.000000  0.000000  0.000000 )
               b(2) = (  0.000000  0.865298  0.000000 )
               b(3) = (  0.000000  0.000000  0.378272 )

     PseudoPot. # 1 for Mo read from file:
     ../pseudo/Mo_ONCV_PBE-1.0.oncvpsp.upf
     MD5 check sum: 1b5d28e075c9ccadda658a603575cd1f
     Pseudo is Norm-conserving, Zval = 14.0
     Generated using ONCVPSP code by D. R. Hamann
     Using radial grid of 1526 points,  6 beta functions with:
                l(1) =   0
                l(2) =   0
                l(3) =   1
                l(4) =   1
                l(5) =   2
                l(6) =   2

     PseudoPot. # 2 for S  read from file:
     ../pseudo/s_pbe_v1.4.uspp.F.UPF
     MD5 check sum: 88d86576ff6df21479756cfb9bdac1df
     Pseudo is Ultrasoft + core correction, Zval =  6.0
     Generated by new atomic code, or converted to UPF format
     Using radial grid of  907 points,  6 beta functions with:
                l(1) =   0
                l(2) =   0
                l(3) =   1
                l(4) =   1
                l(5) =   2
                l(6) =   2
     Q(r) pseudized with  8 coefficients,  rinner =    1.300   1.300   1.300
                                                       1.300   1.300

     PseudoPot. # 3 for H  read from file:
     ../pseudo/H_ONCV_PBE-1.0.oncvpsp.upf
     MD5 check sum: 1790becc920ee074925cf490c71280fe
     Pseudo is Norm-conserving, Zval =  1.0
     Generated using ONCVPSP code by D. R. Hamann
     Using radial grid of 1166 points,  2 beta functions with:
                l(1) =   0
                l(2) =   0

     atomic species   valence    mass     pseudopotential
        Mo            14.00    95.94000     Mo( 1.00)
        S              6.00    32.06500     S ( 1.00)
        H              1.00     1.00794     H ( 1.00)

     No symmetry found

   Cartesian axes

     site n.     atom                  positions (alat units)
         1           Mo  tau(   1) = (   0.6952221   0.1890506   0.2985846  )
         2           S   tau(   2) = (   0.8646417   0.0856217   0.4689279  )
         3           S   tau(   3) = (   0.8663890   0.0857843   0.1351291  )
         4           Mo  tau(   4) = (   0.8560186   0.4753274   0.2873942  )
         5           S   tau(   5) = (   0.6873294   0.3936244   0.4596353  )
         6           S   tau(   6) = (   0.6929804   0.3713468   0.1185692  )
         7           Mo  tau(   7) = (   0.6862796   0.7633098   0.2825370  )
         8           S   tau(   8) = (   0.8545980   0.6708292   0.4486168  )
         9           S   tau(   9) = (   0.8545123   0.6666874   0.1146125  )
        10           Mo  tau(  10) = (   0.8629403   1.0471007   0.3006803  )
        11           S   tau(  11) = (   0.6868280   0.9456650   0.4634891  )
        12           S   tau(  12) = (   0.6998113   0.9568511   0.1205389  )
        13           Mo  tau(  13) = (   0.3618216   0.1847309   0.2935964  )
        14           S   tau(  14) = (   0.5260962   0.0863870   0.4600448  )
        15           S   tau(  15) = (   0.5348379   0.0894875   0.1297123  )
        16           Mo  tau(  16) = (   0.5265817   0.4772436   0.2784130  )
        17           S   tau(  17) = (   0.3624753   0.3882513   0.4525556  )
        18           S   tau(  18) = (   0.3635411   0.3752055   0.1119148  )
        19           Mo  tau(  19) = (   0.3652268   0.7630864   0.2781795  )
        20           S   tau(  20) = (   0.5269494   0.6690381   0.1096838  )
        21           Mo  tau(  21) = (   0.5300192   1.0470394   0.2900995  )
        22           S   tau(  22) = (   0.3670346   0.9457522   0.4574073  )
        23           S   tau(  23) = (   0.3604225   0.9585725   0.1159032  )
        24           Mo  tau(  24) = (   0.0313099   0.1847895   0.3013130  )
        25           S   tau(  25) = (   0.1956761   0.0838230   0.4650863  )
        26           S   tau(  26) = (   0.1967693   0.0903508   0.1278874  )
        27           Mo  tau(  27) = (   0.1967578   0.4753919   0.2813011  )
        28           S   tau(  28) = (   0.0287851   0.3864324   0.4586755  )
        29           S   tau(  29) = (   0.0244514   0.3729871   0.1239344  )
        30           Mo  tau(  30) = (   0.0286728   0.7631204   0.2856894  )
        31           S   tau(  31) = (   0.2011512   0.6675435   0.4465001  )
        32           S   tau(  32) = (   0.1969214   0.6672839   0.1104564  )
        33           Mo  tau(  33) = (   0.1950294   1.0511147   0.2932237  )
        34           S   tau(  34) = (   0.0312912   0.9612169   0.4667423  )
        35           S   tau(  35) = (   0.0292670   0.9563028   0.1216485  )
        36           H   tau(  36) = (   1.0000000   0.1284079   0.5407634  )

     number of k points=     1  Gaussian smearing, width (Ry)=  0.0100
                       cart. coord. in units 2pi/alat
        k(    1) = (   0.0000000   0.0000000   0.0000000), wk =   2.0000000

     Initial potential from superposition of free atoms

     starting charge     306.9873, renormalised to     307.0000

     negative rho (up, down):  1.419E-04 0.000E+00

Carrying out rVV10 run using the following parameters:
Nqs =      20    Nr_points =    1024   r_max =   100.000
b_value =  6.30000    beta =  0.00901
     q_mesh =  0.00010000  0.00030000  0.00058939  0.00100810
               0.00161396  0.00249058  0.00375900  0.00559430
               0.00824984  0.01209221  0.01765183  0.02569619
               0.03733578  0.05417739  0.07854596  0.11380545
               0.16482331  0.23864234  0.34545298  0.50000000

Gradients computed in Reciprocal space

     Starting wfcs are  213 randomized atomic wfcs

     Self-consistent Calculation

     iteration #  1     ecut=    80.00 Ry     beta= 0.70
     Davidson diagonalization with overlap
     ethr =  1.00E-02,  avg # of iterations =  2.0

     Threshold (ethr) on eigenvalues was too large:
     Diagonalizing with lowered threshold

     Davidson diagonalization with overlap
     ethr =  3.82E-04,  avg # of iterations =  4.0

[...]

     total energy              =   -2205.60738891 Ry
     estimated scf accuracy    <       1.46326966 Ry

[...]

     iteration #  4     ecut=    80.00 Ry     beta= 0.70
     Davidson diagonalization with overlap
     c_bands:  1 eigenvalues not converged
     ethr =  1.82E-05,  avg # of iterations = 20.0

[...]

     End of self-consistent calculation

          k = 0.0000 0.0000 0.0000 (105382 PWs)   bands (ev):

   -62.8925 -62.8678 -62.8594 -62.8468 -62.8305 -62.8186 -62.8158 -62.8031
   -62.7596 -62.6105 -62.5900 -62.5408 -37.2062 -37.1570 -37.1447 -37.1215
   -37.1119 -37.1080 -37.0968 -37.0763 -37.0678 -37.0442 -37.0365 -37.0323
   -37.0182 -37.0070 -37.0027 -36.9990 -36.9910 -36.9856 -36.9827 -36.9726
   -36.9374 -36.9208 -36.9004 -36.8731 -36.8679 -36.8377 -36.8324 -36.8244
   -36.7909 -36.7774 -36.7587 -36.7414 -36.7289 -36.6805 -36.5636 -36.5614
   -16.2605 -15.5878 -15.1460 -15.0416 -14.9803 -14.8075 -14.6593 -14.5140
   -14.4524 -14.4019 -14.3868 -14.3336 -14.3239 -14.2407 -14.1424 -14.1189
   -14.0699 -14.0582 -13.9973 -13.9466 -13.7909 -13.7824 -13.7474  -8.9919
    -7.6615  -7.4692  -7.2749  -7.2518  -7.2410  -7.1844  -7.1401  -6.9917
    -6.7991  -6.7782  -6.7168  -6.6653  -6.5909  -6.4920  -6.4397  -6.4287
    -6.3298  -6.2655  -6.1495  -5.9575  -5.9282  -5.8360  -5.8312  -5.7795
    -5.7539  -5.7226  -5.6200  -5.6143  -5.5848  -5.5206  -5.5100  -5.4918
    -5.4196  -5.3290  -5.2117  -5.1633  -5.0669  -5.0056  -4.9414  -4.9279
    -4.9221  -4.7846  -4.6544  -4.4818  -4.3789  -4.3108  -4.2735  -4.2295
    -4.2183  -4.0150  -3.9907  -3.8413  -3.8157  -3.7477  -3.7068  -3.6806
    -3.6445  -3.5715  -3.5379  -3.5167  -3.4875  -3.4767  -3.4039  -3.3580
    -3.3516  -3.1771  -3.1213  -2.9160  -2.8687  -2.7810  -2.7341  -2.6990
    -2.6901  -2.6728  -2.6327  -2.5587  -2.4866  -2.2185  -1.9793  -1.9637
    -1.8832  -0.7596  -0.6145  -0.4144  -0.1634  -0.1168  -0.0740   0.0016
     0.0168   0.1428   0.2211   0.2294   0.2622   0.3024   0.3533   0.4786
     0.4943   0.5704   0.5966   0.6150   0.6651   0.6932   0.7254   0.7638
     0.8055   0.8418   0.8678   0.9312   0.9513   1.0093   1.0346   1.3850
     1.4076

     the Fermi energy is    -0.7719 ev

!    total energy              =   -2205.53157720 Ry
     estimated scf accuracy    <       0.00000098 Ry
     smearing contrib. (-TS)   =      -0.00707998 Ry
     internal energy E=F+TS    =   -2205.52449722 Ry

     The total energy is F=E-TS. E is the sum of the following terms:
     one-electron contribution =  -18056.24973815 Ry
     hartree contribution      =    9015.15058040 Ry
     xc contribution           =    -385.35037134 Ry
     ewald contribution        =    7220.92503187 Ry

     convergence has been achieved in  15 iterations

[...]

     Forces acting on atoms (cartesian axes, Ry/au):

[...]
     atom    3 type  2   force =     0.00756187   -0.13248652  -36.84468488
     atom    4 type  1   force =    -0.14681502    0.83393706    0.66881110
     atom    5 type  2   force =    -0.80387665    1.25748813   38.36757562
     atom    6 type  2   force =     0.37486926   -0.16555964  -38.25591782
     atom    7 type  1   force =    -2.23246440   -2.77939017    2.86462096
     atom    8 type  2   force =    -1.21040432   -0.00065096   37.98274105
     atom    9 type  2   force =     0.28387343   -0.02968793  -37.44732481
     atom   10 type  1   force =    -0.75667013   -0.17259136    3.83170612
     atom   11 type  2   force =    -0.54774610   -1.49929572   38.87156356
     atom   12 type  2   force =     0.32634896    0.36716980  -37.93902180
     atom   13 type  1   force =     0.10417375    0.80119213    1.67374573
     atom   14 type  2   force =     0.10309805    0.03468686   38.57687656
     atom   15 type  2   force =     0.06161595   -0.18442094  -37.86837663
     atom   16 type  1   force =    -0.03097361    3.95296818    0.60474223
     atom   17 type  2   force =     0.87432707    1.30451492   38.15889464
     atom   18 type  2   force =    -0.26967894   -0.20830309  -38.17327463
     atom   19 type  1   force =     2.16370632   -2.43999449    2.92319139
     atom   20 type  2   force =     0.04060692   -0.07276063  -38.65539526
     atom   21 type  1   force =     0.02540521   -0.27094867    0.99321014
     atom   22 type  2   force =     0.40518216   -1.49529184   38.58925392
     atom   23 type  2   force =    -0.24488858    0.23871956  -37.92844932
     atom   24 type  1   force =    -0.53851354    0.67061564    2.06530274
     atom   25 type  2   force =     0.55536468    0.13077042   38.67739188
     atom   26 type  2   force =    -0.14136805   -0.11133817  -37.73008248
     atom   27 type  1   force =     0.18027868    0.96012830    0.31001830
     atom   28 type  2   force =    -0.07526186    0.74614168   38.10873900
     atom   29 type  2   force =    -0.13168051    0.00748543  -37.68630568
     atom   30 type  1   force =     0.00906536   -1.17667312    2.45122663
     atom   31 type  2   force =     1.26782623    0.05345008   38.07195441
     atom   32 type  2   force =    -0.26839811    0.05445704  -37.59539405
     atom   33 type  1   force =     0.53201367   -0.76591289    2.47201965
     atom   34 type  2   force =     0.22837391   -0.83329473   38.92063898
     atom   35 type  2   force =    -0.03245226    0.10785423  -37.48123506
     atom   36 type  3   force =     0.51859485   -0.18053499    8.54906313
     The local contribution  to forces
     atom    1 type  1   force =    -0.81895392   -0.27542173   -2.50118239
     atom    2 type  2   force =     1.28524911   -0.68414549  -37.48654699
     atom    3 type  2   force =    -0.00671608    0.14331081   36.58610085
     atom    4 type  1   force =     0.14811699   -0.84463384   -0.67194839
     atom    5 type  2   force =     0.79547345   -1.23708215  -38.14351291
     atom    6 type  2   force =    -0.37031705    0.17319087   38.01311123
     atom    7 type  1   force =     2.26293438    2.79427962   -2.84597617
     atom    8 type  2   force =     1.20576062    0.00066491  -37.74000105
     atom    9 type  2   force =    -0.27834583    0.04810206   37.19881367
     atom   10 type  1   force =     0.75638546    0.17633906   -3.82261532
     atom   11 type  2   force =     0.53661477    1.49187690  -38.63834537
     atom   12 type  2   force =    -0.31683623   -0.35700015   37.69801159
     atom   13 type  1   force =    -0.10492400   -0.82658478   -1.66620531
     atom   14 type  2   force =    -0.09835518   -0.02605077  -38.34425055
     atom   15 type  2   force =    -0.06170141    0.18313533   37.62504887
     atom   16 type  1   force =     0.03336082   -4.00016667   -0.57696985
     atom   17 type  2   force =    -0.86830155   -1.28062931  -37.92596127
     atom   18 type  2   force =     0.26821747    0.21595389   37.92976423
     atom   19 type  1   force =    -2.19115573    2.45498510   -2.89947956
     atom   20 type  2   force =    -0.04036375    0.08640364   38.41483462
     atom   21 type  1   force =    -0.02417551    0.25674305   -0.99865383
     atom   22 type  2   force =    -0.40117467    1.49127956  -38.35103026
     atom   23 type  2   force =     0.23536450   -0.23287477   37.68321524
     atom   24 type  1   force =     0.53370413   -0.68992806   -2.05921726
     atom   25 type  2   force =    -0.55138784   -0.12066031  -38.44857602
     atom   26 type  2   force =     0.13680555    0.11837320   37.48380570
     atom   27 type  1   force =    -0.18409452   -0.97336372   -0.31422678
     atom   28 type  2   force =     0.07495046   -0.72172215  -37.86671650
     atom   29 type  2   force =     0.13056621    0.00260715   37.44114149
     atom   30 type  1   force =    -0.01201359    1.16528473   -2.45406126
     atom   31 type  2   force =    -1.25936979   -0.05475454  -37.82842550
     atom   32 type  2   force =     0.26416271   -0.03850335   37.34646336
     atom   33 type  1   force =    -0.53143934    0.76478116   -2.47572844
     atom   34 type  2   force =    -0.22454895    0.83360568  -38.67950145
     atom   35 type  2   force =     0.03351086   -0.09623024   37.23433773
     atom   36 type  3   force =    -0.49236667    0.17173395   -8.49839566
     The core correction contribution to forces
     atom    1 type  1   force =     0.00000000    0.00000000    0.00000000
     atom    2 type  2   force =    -0.01161059    0.00423473   -0.00449075
     atom    3 type  2   force =     0.00012446    0.00034544   -0.02141580
     atom    4 type  1   force =     0.00000000    0.00000000    0.00000000
     atom    5 type  2   force =    -0.00079080    0.00127030    0.01989430
     atom    6 type  2   force =     0.00034728    0.00004642   -0.02091304
     atom    7 type  1   force =     0.00000000    0.00000000    0.00000000
     atom    8 type  2   force =    -0.00044128    0.00016855    0.02054285
     atom    9 type  2   force =     0.00045235    0.00104521   -0.02074614
     atom   10 type  1   force =     0.00000000    0.00000000    0.00000000
     atom   11 type  2   force =    -0.00059912   -0.00069912    0.02024939
     atom   12 type  2   force =     0.00082227    0.00091431   -0.02080067
     atom   13 type  1   force =     0.00000000    0.00000000    0.00000000
     atom   14 type  2   force =     0.00010412    0.00011426    0.02025046
     atom   15 type  2   force =    -0.00001672   -0.00019383   -0.02079431
     atom   16 type  1   force =     0.00000000    0.00000000    0.00000000
     atom   17 type  2   force =     0.00055087    0.00127108    0.02024454
     atom   18 type  2   force =    -0.00020740   -0.00005369   -0.02075972
     atom   19 type  1   force =     0.00000000    0.00000000    0.00000000
     atom   20 type  2   force =     0.00006664    0.00060769   -0.02108872
     atom   21 type  1   force =     0.00000000    0.00000000    0.00000000
     atom   22 type  2   force =     0.00002523   -0.00046265    0.02042166
     atom   23 type  2   force =    -0.00063813    0.00061672   -0.02088420
     atom   24 type  1   force =     0.00000000    0.00000000    0.00000000
     atom   25 type  2   force =     0.00060892    0.00045088    0.01984373
     atom   26 type  2   force =    -0.00030375    0.00020898   -0.02094541
     atom   27 type  1   force =     0.00000000    0.00000000    0.00000000
     atom   28 type  2   force =     0.00001547    0.00169088    0.02039977
     atom   29 type  2   force =    -0.00012277    0.00034190   -0.02075408
     atom   30 type  1   force =     0.00000000    0.00000000    0.00000000
     atom   31 type  2   force =     0.00055655    0.00010966    0.02065912
     atom   32 type  2   force =    -0.00037564    0.00099792   -0.02083541
     atom   33 type  1   force =     0.00000000    0.00000000    0.00000000
     atom   34 type  2   force =     0.00048846   -0.00028753    0.02049031
     atom   35 type  2   force =     0.00005441    0.00072166   -0.02101839
     atom   36 type  3   force =     0.00000000    0.00000000    0.00000000
     The Hubbard contrib.    to forces
     atom    1 type  1   force =     0.00000000    0.00000000    0.00000000
     atom    2 type  2   force =     0.00000000    0.00000000    0.00000000
     atom    3 type  2   force =     0.00000000    0.00000000    0.00000000
     atom    4 type  1   force =     0.00000000    0.00000000    0.00000000
     atom    5 type  2   force =     0.00000000    0.00000000    0.00000000
     atom    6 type  2   force =     0.00000000    0.00000000    0.00000000
     atom    7 type  1   force =     0.00000000    0.00000000    0.00000000
     atom    8 type  2   force =     0.00000000    0.00000000    0.00000000
     atom    9 type  2   force =     0.00000000    0.00000000    0.00000000
     atom   10 type  1   force =     0.00000000    0.00000000    0.00000000
     atom   11 type  2   force =     0.00000000    0.00000000    0.00000000
     atom   12 type  2   force =     0.00000000    0.00000000    0.00000000
     atom   13 type  1   force =     0.00000000    0.00000000    0.00000000
     atom   14 type  2   force =     0.00000000    0.00000000    0.00000000
     atom   15 type  2   force =     0.00000000    0.00000000    0.00000000
     atom   16 type  1   force =     0.00000000    0.00000000    0.00000000
     atom   17 type  2   force =     0.00000000    0.00000000    0.00000000
     atom   18 type  2   force =     0.00000000    0.00000000    0.00000000
     atom   19 type  1   force =     0.00000000    0.00000000    0.00000000
     atom   20 type  2   force =     0.00000000    0.00000000    0.00000000
     atom   21 type  1   force =     0.00000000    0.00000000    0.00000000
     atom   22 type  2   force =     0.00000000    0.00000000    0.00000000
     atom   23 type  2   force =     0.00000000    0.00000000    0.00000000
     atom   24 type  1   force =     0.00000000    0.00000000    0.00000000
     atom   25 type  2   force =     0.00000000    0.00000000    0.00000000
     atom   26 type  2   force =     0.00000000    0.00000000    0.00000000
     atom   27 type  1   force =     0.00000000    0.00000000    0.00000000
     atom   28 type  2   force =     0.00000000    0.00000000    0.00000000
     atom   29 type  2   force =     0.00000000    0.00000000    0.00000000
     atom   30 type  1   force =     0.00000000    0.00000000    0.00000000
     atom   31 type  2   force =     0.00000000    0.00000000    0.00000000
     atom   32 type  2   force =     0.00000000    0.00000000    0.00000000
     atom   33 type  1   force =     0.00000000    0.00000000    0.00000000
     atom   34 type  2   force =     0.00000000    0.00000000    0.00000000
     atom   35 type  2   force =     0.00000000    0.00000000    0.00000000
     atom   36 type  3   force =     0.00000000    0.00000000    0.00000000
     The SCF correction term to forces
     atom    1 type  1   force =    -0.00002164    0.00000468    0.00004444
     atom    2 type  2   force =    -0.00001143    0.00000480    0.00005960
     atom    3 type  2   force =    -0.00000110    0.00000758    0.00000265
     atom    4 type  1   force =    -0.00000687   -0.00002388    0.00005105
     atom    5 type  2   force =    -0.00000960   -0.00000923    0.00002537
     atom    6 type  2   force =    -0.00001038   -0.00000977    0.00001378
     atom    7 type  1   force =    -0.00001436   -0.00000988    0.00005710
     atom    8 type  2   force =    -0.00000541   -0.00000729    0.00003382
     atom    9 type  2   force =    -0.00000738   -0.00001472    0.00000819
     atom   10 type  1   force =    -0.00000951    0.00001698    0.00006246
     atom   11 type  2   force =    -0.00000177    0.00002236    0.00004358
     atom   12 type  2   force =    -0.00000353    0.00001987    0.00000779
     atom   13 type  1   force =     0.00002133    0.00000934    0.00003364
     atom   14 type  2   force =     0.00000801   -0.00000445    0.00003736
     atom   15 type  2   force =    -0.00000061    0.00000699    0.00000816
     atom   16 type  1   force =    -0.00000265   -0.00002741    0.00005103
     atom   17 type  2   force =     0.00001334   -0.00000500    0.00001842
     atom   18 type  2   force =     0.00000811   -0.00000918    0.00001760
     atom   19 type  1   force =     0.00000691   -0.00000534    0.00006169
     atom   20 type  2   force =    -0.00000481   -0.00001611    0.00001890
     atom   21 type  1   force =    -0.00000035    0.00003638    0.00006643
     atom   22 type  2   force =     0.00000725    0.00000589    0.00003036
     atom   23 type  2   force =     0.00000040    0.00001134    0.00001317
     atom   24 type  1   force =    -0.00000178   -0.00000097    0.00004449
     atom   25 type  2   force =    -0.00000084    0.00000118    0.00002715
     atom   26 type  2   force =     0.00000657    0.00000383    0.00000107
     atom   27 type  1   force =     0.00002130   -0.00002213    0.00003899
     atom   28 type  2   force =    -0.00000856   -0.00000977    0.00002772
     atom   29 type  2   force =    -0.00000362   -0.00000782    0.00000471
     atom   30 type  1   force =     0.00000498    0.00000853    0.00006307
     atom   31 type  2   force =     0.00001304   -0.00000062    0.00002757
     atom   32 type  2   force =     0.00001344   -0.00000947    0.00001281
     atom   33 type  1   force =     0.00001544    0.00001774    0.00004412
     atom   34 type  2   force =    -0.00000701    0.00001224    0.00004197
     atom   35 type  2   force =     0.00000014    0.00001860    0.00000691
     atom   36 type  3   force =    -0.00000444    0.00000025    0.00000404

     Total force =     0.007608     Total SCF correction =     0.000242
     Energy error            =      9.1E-05 Ry
     Gradient error          =      3.0E-03 Ry/Bohr

     bfgs converged in  31 scf cycles and  30 bfgs steps
     (criteria: energy <  1.0E-04 Ry, force <  1.0E-02 Ry/Bohr)

     End of BFGS Geometry Optimization

     Final energy             =   -2205.5832200007 Ry

     File ./MoS2-V-O.bfgs deleted, as requested
Begin final coordinates

ATOMIC_POSITIONS (angstrom)
Mo            6.5560331302        1.8004277187        2.7412532186
S             8.2202920185        0.8277467849        4.3913665927
S             8.1626414702        0.8515479786        1.2027101465
Mo            8.1247797731        4.4942140637        2.7067120290
S             6.5014179495        3.7124594306        4.2967738247
S             6.5600342431        3.5756339106        1.0929863530
Mo            6.5119858536        7.2350662702        2.6668993004
S             8.0834421888        6.3206624926        4.2912367715
S             8.1531646811        6.3435216945        1.1263375845
Mo            8.1663134714        9.9307515149        2.7893816604
S             6.5204465783        8.9734496659        4.3450434047
S             6.6211020468        9.0592088190        1.1253162451
Mo            3.4472226280        1.7695043323        2.7363332554
S             5.0068327070        0.8521408416        4.3259182680
S             5.0229410357        0.8583021066        1.1387998276
Mo            4.9975527684        4.5501343925        2.6249627757
S             3.4725372163        3.6798148887        4.2825421818
S             3.4297773935        3.5796198362        1.0930734133
Mo            3.5096088002        7.2235330611        2.6658798990
S             5.0137778187        6.3449401448        1.0309010287
Mo            5.0256601755        9.9472082852        2.7226122246
S             3.4995452005        8.9858062682        4.3234709664
S             3.4272079900        9.0572582556        1.1177799616
Mo            0.3042670664        1.7636877112        2.7633660287
S             1.8887432379        0.8671852990        4.3521475362
S             1.8594503799        0.8510193321        1.1565859200
Mo            1.8693542719        4.5051718977        2.6997689108
S             0.2779477775        3.6368754634        4.3051113223
S             0.2730715723        3.5695926461        1.1363980461
Mo            0.2841626649        7.2317179558        2.7406160745
S             1.9393631096        6.3198461223        4.2925950375
S             1.8625807096        6.3490208183        1.1181377429
Mo            1.8723586167        9.9534038236        2.7584141499
S             0.3037172510        9.0252638409        4.3681981648
S             0.2806347866        9.0598490996        1.1709586049
H             8.8791384293        0.5896818656        5.5901591045
End final coordinates

     Writing all to output data dir ./MoS2-V-O.save/

     General routines

     Parallel routines

   This run was terminated on:  22:59:15   3Nov2023

   JOB DONE.