     Program PWSCF v.7.2 starts on  4Nov2023 at  2:18: 8

     Waiting for input...
     Reading input from standard input
Warning: card &CELL ignored
Warning: card CELL_DYNAMICS = 'BFGS', ignored
Warning: card CELL_DOFREE = '2DXY' ignored
Warning: card / ignored

     Current dimensions of program PWSCF are:
     Max number of different atomic species (ntypx) = 10
     Max number of k-points (npk) =  40000
     Max angular momentum in pseudopotentials (lmaxx) =  4

     IMPORTANT: XC functional enforced from input :
     Exchange-correlation= RVV10
                           (   1   4  13   4  26   0   0)
     Any further DFT definition will be discarded
     Please, verify this is what you really want

     gamma-point specific algorithms are used
     signal trapping enabled: kill the code with -SIGUSR1 to stop cleanly the simulation

     R & G space division:  proc/nbgrp/npool/nimage =      48
     Subspace diagonalization in iterative solution of the eigenvalue problem:
     one sub-group per band group will be used

     Using Slab Decomposition

     bravais-lattice index     =            0
     lattice parameter (alat)  =      17.8707  a.u.
     unit-cell volume          =   17436.2743 (a.u.)^3
     number of atoms/cell      =           36
     number of atomic types    =            3
     number of electrons       =       307.00
     number of Kohn-Sham states=          185
     kinetic-energy cutoff     =      80.0000  Ry
     charge density cutoff     =     400.0000  Ry
     scf convergence threshold =      1.0E-06
     mixing beta               =       0.7000
     number of iterations used =            8  local-TF  mixing
     energy convergence thresh.=      1.0E-04
     force convergence thresh. =      1.0E-02
     Exchange-correlation= RVV10
                           (   1   4  13   4  26   0   0)
     nstep                     =          200

     celldm(1)=  17.870686  celldm(2)=   0.000000  celldm(3)=   0.000000
     celldm(4)=   0.000000  celldm(5)=   0.000000  celldm(6)=   0.000000

     crystal axes: (cart. coord. in units of alat)
               a(1) = (   1.000000   0.000000   0.000000 )
               a(2) = (   0.000000   1.155671   0.000000 )
               a(3) = (   0.000000   0.000000   2.643601 )

     reciprocal axes: (cart. coord. in units 2 pi/alat)
               b(1) = (  1.000000  0.000000  0.000000 )
               b(2) = (  0.000000  0.865298  0.000000 )
               b(3) = (  0.000000  0.000000  0.378272 )

     PseudoPot. # 1 for Mo read from file:
     ../pseudo/Mo_ONCV_PBE-1.0.oncvpsp.upf
     MD5 check sum: 1b5d28e075c9ccadda658a603575cd1f
     Pseudo is Norm-conserving, Zval = 14.0
     Generated using ONCVPSP code by D. R. Hamann
     Using radial grid of 1526 points,  6 beta functions with:
                l(1) =   0
                l(2) =   0
                l(3) =   1
                l(4) =   1
                l(5) =   2
                l(6) =   2

     PseudoPot. # 2 for S  read from file:
     ../pseudo/s_pbe_v1.4.uspp.F.UPF
     MD5 check sum: 88d86576ff6df21479756cfb9bdac1df
     Pseudo is Ultrasoft + core correction, Zval =  6.0
     Generated by new atomic code, or converted to UPF format
     Using radial grid of  907 points,  6 beta functions with:
                l(1) =   0
                l(2) =   0
                l(3) =   1
                l(4) =   1
                l(5) =   2
                l(6) =   2
     Q(r) pseudized with  8 coefficients,  rinner =    1.300   1.300   1.300
                                                       1.300   1.300

     PseudoPot. # 3 for H  read from file:
     ../pseudo/H_ONCV_PBE-1.0.oncvpsp.upf
     MD5 check sum: 1790becc920ee074925cf490c71280fe
     Pseudo is Norm-conserving, Zval =  1.0
     Generated using ONCVPSP code by D. R. Hamann
     Using radial grid of 1166 points,  2 beta functions with:
                l(1) =   0
                l(2) =   0

     atomic species   valence    mass     pseudopotential
        Mo            14.00    95.94000     Mo( 1.00)
        S              6.00    32.06500     S ( 1.00)
        H              1.00     1.00794     H ( 1.00)

     No symmetry found

   Cartesian axes

     site n.     atom                  positions (alat units)
         1           Mo  tau(   1) = (   0.6952221   0.1890506   0.2985846  )
         2           S   tau(   2) = (   0.8646417   0.0856217   0.4689279  )
         3           S   tau(   3) = (   0.8663890   0.0857843   0.1351291  )
         4           Mo  tau(   4) = (   0.8560186   0.4753274   0.2873942  )
         5           S   tau(   5) = (   0.6873294   0.3936244   0.4596353  )
         6           S   tau(   6) = (   0.6929804   0.3713468   0.1185692  )
         7           Mo  tau(   7) = (   0.6862796   0.7633098   0.2825370  )
         8           S   tau(   8) = (   0.8545980   0.6708292   0.4486168  )
         9           S   tau(   9) = (   0.8545123   0.6666874   0.1146125  )
        10           Mo  tau(  10) = (   0.8629403   1.0471007   0.3006803  )
        11           S   tau(  11) = (   0.6868280   0.9456650   0.4634891  )
        12           S   tau(  12) = (   0.6998113   0.9568511   0.1205389  )
        13           Mo  tau(  13) = (   0.3618216   0.1847309   0.2935964  )
        14           S   tau(  14) = (   0.5260962   0.0863870   0.4600448  )
        15           S   tau(  15) = (   0.5348379   0.0894875   0.1297123  )
        16           Mo  tau(  16) = (   0.5265817   0.4772436   0.2784130  )
        17           S   tau(  17) = (   0.3624753   0.3882513   0.4525556  )
        18           S   tau(  18) = (   0.3635411   0.3752055   0.1119148  )
        19           Mo  tau(  19) = (   0.3652268   0.7630864   0.2781795  )
        20           S   tau(  20) = (   0.5269494   0.6690381   0.1096838  )
        21           Mo  tau(  21) = (   0.5300192   1.0470394   0.2900995  )
        22           S   tau(  22) = (   0.3670346   0.9457522   0.4574073  )
        23           S   tau(  23) = (   0.3604225   0.9585725   0.1159032  )
        24           Mo  tau(  24) = (   0.0313099   0.1847895   0.3013130  )
        25           S   tau(  25) = (   0.1956761   0.0838230   0.4650863  )
        26           S   tau(  26) = (   0.1967693   0.0903508   0.1278874  )
        27           Mo  tau(  27) = (   0.1967578   0.4753919   0.2813011  )
        28           S   tau(  28) = (   0.0287851   0.3864324   0.4586755  )
        29           S   tau(  29) = (   0.0244514   0.3729871   0.1239344  )
        30           Mo  tau(  30) = (   0.0286728   0.7631204   0.2856894  )
        31           S   tau(  31) = (   0.2011512   0.6675435   0.4465001  )
        32           S   tau(  32) = (   0.1969214   0.6672839   0.1104564  )
        33           Mo  tau(  33) = (   0.1950294   1.0511147   0.2932237  )
        34           S   tau(  34) = (   0.0312912   0.9612169   0.4667423  )
        35           S   tau(  35) = (   0.0292670   0.9563028   0.1216485  )
        36           H   tau(  36) = (   0.3333333   0.5136314   0.5650415  )

     number of k points=     1  Gaussian smearing, width (Ry)=  0.0100
                       cart. coord. in units 2pi/alat
        k(    1) = (   0.0000000   0.0000000   0.0000000), wk =   2.0000000

     Initial potential from superposition of free atoms

     starting charge     306.9873, renormalised to     307.0000

     negative rho (up, down):  1.405E-04 0.000E+00

Carrying out rVV10 run using the following parameters:
Nqs =      20    Nr_points =    1024   r_max =   100.000
b_value =  6.30000    beta =  0.00901
     q_mesh =  0.00010000  0.00030000  0.00058939  0.00100810
               0.00161396  0.00249058  0.00375900  0.00559430
               0.00824984  0.01209221  0.01765183  0.02569619
               0.03733578  0.05417739  0.07854596  0.11380545
               0.16482331  0.23864234  0.34545298  0.50000000

Gradients computed in Reciprocal space

     Starting wfcs are  213 randomized atomic wfcs

     Self-consistent Calculation

     iteration #  1     ecut=    80.00 Ry     beta= 0.70
     Davidson diagonalization with overlap
     ethr =  1.00E-02,  avg # of iterations =  2.0

     Threshold (ethr) on eigenvalues was too large:
     Diagonalizing with lowered threshold

     Davidson diagonalization with overlap
     ethr =  3.77E-04,  avg # of iterations =  4.0

[...]

     total energy              =   -2205.60008981 Ry
     estimated scf accuracy    <       1.44109804 Ry

[...]

     iteration #  4     ecut=    80.00 Ry     beta= 0.70
     Davidson diagonalization with overlap
     c_bands:  1 eigenvalues not converged
     ethr =  5.47E-05,  avg # of iterations = 20.0

[...]

     iteration #  8     ecut=    80.00 Ry     beta= 0.70
     Davidson diagonalization with overlap
     c_bands:  1 eigenvalues not converged
     ethr =  2.80E-06,  avg # of iterations = 20.0

[...]

     End of self-consistent calculation

          k = 0.0000 0.0000 0.0000 (105382 PWs)   bands (ev):

   -62.8895 -62.8562 -62.8506 -62.8378 -62.8299 -62.8074 -62.7912 -62.7795
   -62.7722 -62.7697 -62.7426 -62.7313 -37.2172 -37.1596 -37.1410 -37.1288
   -37.1140 -37.0949 -37.0711 -37.0635 -37.0564 -37.0486 -37.0472 -37.0351
   -37.0154 -37.0095 -37.0064 -36.9986 -36.9936 -36.9870 -36.9853 -36.9779
   -36.9568 -36.9450 -36.9315 -36.9152 -36.9104 -36.9050 -36.8923 -36.8881
   -36.8772 -36.8710 -36.8588 -36.8314 -36.8290 -36.7901 -36.7243 -36.6895
   -16.0313 -15.4339 -15.1226 -15.0540 -14.9035 -14.8256 -14.6897 -14.5006
   -14.4363 -14.3967 -14.3721 -14.3172 -14.3123 -14.2897 -14.1898 -14.1245
   -14.1110 -14.0784 -14.0157 -13.8806 -13.8324 -13.8121 -13.7859  -8.2288
    -7.6410  -7.4351  -7.2797  -7.2599  -7.2303  -7.1840  -7.1633  -7.0206
    -6.8470  -6.8109  -6.7276  -6.6725  -6.5107  -6.5013  -6.4248  -6.4049
    -6.3436  -6.2528  -6.1543  -5.9898  -5.9246  -5.8491  -5.8487  -5.7822
    -5.7400  -5.7136  -5.6881  -5.6482  -5.6158  -5.5588  -5.5175  -5.4683
    -5.4252  -5.3766  -5.1457  -5.1252  -5.0590  -4.9986  -4.9716  -4.9422
    -4.8980  -4.8349  -4.6732  -4.5594  -4.3808  -4.3181  -4.3103  -4.2446
    -4.1905  -4.0210  -3.9803  -3.8990  -3.8191  -3.7634  -3.7432  -3.6868
    -3.6336  -3.5633  -3.5377  -3.5067  -3.4702  -3.4488  -3.4242  -3.3784
    -3.3447  -3.2136  -3.1756  -2.8910  -2.8726  -2.7845  -2.7779  -2.7334
    -2.7029  -2.6591  -2.6436  -2.6198  -2.5723  -2.2784  -2.0556  -1.9835
    -1.9072  -0.9950  -0.8129  -0.6701  -0.1646  -0.1182  -0.0747  -0.0328
     0.1006   0.1375   0.1632   0.2449   0.2751   0.2844   0.4120   0.4382
     0.4751   0.5363   0.5687   0.5880   0.6191   0.6640   0.7229   0.7686
     0.7948   0.8276   0.8509   0.9193   0.9456   0.9754   1.0651   1.2316
     1.3929

     the Fermi energy is    -1.0011 ev

!    total energy              =   -2205.53427456 Ry
     estimated scf accuracy    <       0.00000054 Ry
     smearing contrib. (-TS)   =      -0.00647765 Ry
     internal energy E=F+TS    =   -2205.52779691 Ry

     The total energy is F=E-TS. E is the sum of the following terms:
     one-electron contribution =  -18045.81044113 Ry
     hartree contribution      =    9009.75572091 Ry
[...]
     atom    3 type  2   force =     0.00555889    0.11467761  -37.38917798
     atom    4 type  1   force =    -0.28156106   -0.00032170    0.50114423
     atom    5 type  2   force =    -0.68040881    0.88646836   38.17162182
     atom    6 type  2   force =     0.04465029   -0.34997221  -37.71941147
     atom    7 type  1   force =    -2.88104199   -1.74106561    2.31903647
     atom    8 type  2   force =    -1.24401311    0.18590508   38.24838836
     atom    9 type  2   force =     0.20876303   -0.13221530  -38.02705354
     atom   10 type  1   force =    -0.54546092   -0.11675124    2.60731198
     atom   11 type  2   force =    -0.51654541   -1.30387323   38.54646121
     atom   12 type  2   force =     0.16116980    0.33864891  -38.00338190
     atom   13 type  1   force =     0.40370169    1.64611677    2.48942776
     atom   14 type  2   force =    -0.07769913   -0.04509655   38.34607138
     atom   15 type  2   force =     0.15537886    0.02471221  -37.45879748
     atom   16 type  1   force =     0.26765420    2.54014873    3.43435449
     atom   17 type  2   force =     1.26408387   -0.66655840   38.12238616
     atom   18 type  2   force =    -0.07757182   -0.38790637  -37.38788994
     atom   19 type  1   force =     3.21453647   -1.21311319    1.01733973
     atom   20 type  2   force =     0.10736915   -0.09669265  -38.52976751
     atom   21 type  1   force =     0.02179986   -0.13454969    0.93627806
     atom   22 type  2   force =     0.58291516   -1.21872885   38.27762213
     atom   23 type  2   force =    -0.05334031    0.32985399  -38.05577345
     atom   24 type  1   force =    -0.16511876    0.47536367    2.46411266
     atom   25 type  2   force =     0.28066848    0.04359795   38.81640137
     atom   26 type  2   force =    -0.14742411    0.08670407  -37.65962456
     atom   27 type  1   force =     0.11475896   -0.75994064    1.24798095
     atom   28 type  2   force =    -0.19096031    0.19997920   38.01060624
     atom   29 type  2   force =     0.03577246   -0.16023572  -37.41387369
     atom   30 type  1   force =    -0.26387780   -0.43446286    1.34860276
     atom   31 type  2   force =     0.78060092    0.67835214   38.06743307
     atom   32 type  2   force =    -0.39371218   -0.17967912  -38.25558769
     atom   33 type  1   force =     0.46306827   -0.14954387    2.45424193
     atom   34 type  2   force =    -0.03579327   -0.29752347   38.75237340
     atom   35 type  2   force =    -0.06828162    0.22568468  -37.62979045
     atom   36 type  3   force =    -0.00923685    0.87439407    8.28736503
     The local contribution  to forces
     atom    1 type  1   force =     0.29653004   -0.71186837   -2.34781636
     atom    2 type  2   force =     0.18752506   -0.03544395  -38.46680174
     atom    3 type  2   force =    -0.00280381   -0.10636782   37.14381530
     atom    4 type  1   force =     0.28106007   -0.00905972   -0.50567987
     atom    5 type  2   force =     0.67766218   -0.87008169  -37.94138971
     atom    6 type  2   force =    -0.05062533    0.35186970   37.47378601
     atom    7 type  1   force =     2.89668976    1.73384862   -2.30066360
     atom    8 type  2   force =     1.23688640   -0.18313056  -38.00350970
     atom    9 type  2   force =    -0.20503639    0.14205225   37.77781133
     atom   10 type  1   force =     0.54525149    0.10905219   -2.61000483
     atom   11 type  2   force =     0.51030337    1.30443324  -38.31250839
     atom   12 type  2   force =    -0.15410513   -0.32551353   37.76176820
     atom   13 type  1   force =    -0.40177607   -1.66930227   -2.45855487
     atom   14 type  2   force =     0.07366849    0.05775976  -38.10321860
     atom   15 type  2   force =    -0.15221880   -0.01464441   37.21346900
     atom   16 type  1   force =    -0.25904047   -2.57526713   -3.39854665
     atom   17 type  2   force =    -1.15999214    0.43281383  -38.15725122
     atom   18 type  2   force =     0.08053067    0.39140015   37.13728964
     atom   19 type  1   force =    -3.23387473    1.20577976   -1.00488631
     atom   20 type  2   force =    -0.10675218    0.10700077   38.28780450
     atom   21 type  1   force =    -0.02200170    0.11161908   -0.93886864
     atom   22 type  2   force =    -0.57926355    1.21805791  -38.04170882
     atom   23 type  2   force =     0.04372628   -0.31181989   37.81191139
     atom   24 type  1   force =     0.16466155   -0.48819715   -2.46360807
     atom   25 type  2   force =    -0.27609743   -0.03202771  -38.57602126
     atom   26 type  2   force =     0.14250092   -0.07594296   37.41325934
     atom   27 type  1   force =    -0.11189981    0.75433816   -1.24645760
     atom   28 type  2   force =     0.18544266   -0.19238649  -37.76441847
     atom   29 type  2   force =    -0.03368528    0.16716409   37.16483218
     atom   30 type  1   force =     0.26649331    0.41035643   -1.35261144
     atom   31 type  2   force =    -0.76977503   -0.68020234  -37.85305583
     atom   32 type  2   force =     0.39060236    0.18965979   38.00881417
     atom   33 type  1   force =    -0.46182052    0.14658496   -2.45391424
     atom   34 type  2   force =     0.03585219    0.30674697  -38.50331972
     atom   35 type  2   force =     0.06769357   -0.21220116   37.38613684
     atom   36 type  3   force =    -0.00359890   -0.84117029   -8.24476692
     The core correction contribution to forces
     atom    1 type  1   force =     0.00000000    0.00000000    0.00000000
     atom    2 type  2   force =     0.00009817    0.00029961    0.02068171
     atom    3 type  2   force =     0.00016835    0.00046500   -0.02084148
     atom    4 type  1   force =     0.00000000    0.00000000    0.00000000
     atom    5 type  2   force =    -0.00022051    0.00065384    0.02004995
     atom    6 type  2   force =    -0.00036916   -0.00026686   -0.02074267
     atom    7 type  1   force =     0.00000000    0.00000000    0.00000000
     atom    8 type  2   force =    -0.00038137    0.00044648    0.02080397
     atom    9 type  2   force =     0.00047517    0.00050755   -0.02099744
     atom   10 type  1   force =     0.00000000    0.00000000    0.00000000
     atom   11 type  2   force =    -0.00015245   -0.00016030    0.02031826
     atom   12 type  2   force =     0.00065573    0.00089489   -0.02076844
     atom   13 type  1   force =     0.00000000    0.00000000    0.00000000
     atom   14 type  2   force =    -0.00025471    0.00018213    0.02060487
     atom   15 type  2   force =     0.00018895    0.00034903   -0.02078682
     atom   16 type  1   force =     0.00000000    0.00000000    0.00000000
     atom   17 type  2   force =     0.00666061   -0.01600540    0.00072266
     atom   18 type  2   force =     0.00019498   -0.00021227   -0.02116175
     atom   19 type  1   force =     0.00000000    0.00000000    0.00000000
     atom   20 type  2   force =     0.00007515    0.00041937   -0.02115084
     atom   21 type  1   force =     0.00000000    0.00000000    0.00000000
     atom   22 type  2   force =     0.00004401   -0.00028870    0.02043260
     atom   23 type  2   force =    -0.00069743    0.00118032   -0.02079474
     atom   24 type  1   force =     0.00000000    0.00000000    0.00000000
     atom   25 type  2   force =     0.00030922    0.00035163    0.02061127
     atom   26 type  2   force =    -0.00037732    0.00038563   -0.02099068
     atom   27 type  1   force =     0.00000000    0.00000000    0.00000000
     atom   28 type  2   force =    -0.00042180    0.00054344    0.02060988
     atom   29 type  2   force =     0.00026680    0.00014523   -0.02089273
     atom   30 type  1   force =     0.00000000    0.00000000    0.00000000
     atom   31 type  2   force =     0.00033076    0.00065179    0.01914268
     atom   32 type  2   force =    -0.00067249    0.00044367   -0.02093327
     atom   33 type  1   force =     0.00000000    0.00000000    0.00000000
     atom   34 type  2   force =     0.00000080    0.00035702    0.02099075
     atom   35 type  2   force =    -0.00007779    0.00086679   -0.02080730
     atom   36 type  3   force =     0.00000000    0.00000000    0.00000000
     The Hubbard contrib.    to forces
     atom    1 type  1   force =     0.00000000    0.00000000    0.00000000
     atom    2 type  2   force =     0.00000000    0.00000000    0.00000000
     atom    3 type  2   force =     0.00000000    0.00000000    0.00000000
     atom    4 type  1   force =     0.00000000    0.00000000    0.00000000
     atom    5 type  2   force =     0.00000000    0.00000000    0.00000000
     atom    6 type  2   force =     0.00000000    0.00000000    0.00000000
     atom    7 type  1   force =     0.00000000    0.00000000    0.00000000
     atom    8 type  2   force =     0.00000000    0.00000000    0.00000000
     atom    9 type  2   force =     0.00000000    0.00000000    0.00000000
     atom   10 type  1   force =     0.00000000    0.00000000    0.00000000
     atom   11 type  2   force =     0.00000000    0.00000000    0.00000000
     atom   12 type  2   force =     0.00000000    0.00000000    0.00000000
     atom   13 type  1   force =     0.00000000    0.00000000    0.00000000
     atom   14 type  2   force =     0.00000000    0.00000000    0.00000000
     atom   15 type  2   force =     0.00000000    0.00000000    0.00000000
     atom   16 type  1   force =     0.00000000    0.00000000    0.00000000
     atom   17 type  2   force =     0.00000000    0.00000000    0.00000000
     atom   18 type  2   force =     0.00000000    0.00000000    0.00000000
     atom   19 type  1   force =     0.00000000    0.00000000    0.00000000
     atom   20 type  2   force =     0.00000000    0.00000000    0.00000000
     atom   21 type  1   force =     0.00000000    0.00000000    0.00000000
     atom   22 type  2   force =     0.00000000    0.00000000    0.00000000
     atom   23 type  2   force =     0.00000000    0.00000000    0.00000000
     atom   24 type  1   force =     0.00000000    0.00000000    0.00000000
     atom   25 type  2   force =     0.00000000    0.00000000    0.00000000
     atom   26 type  2   force =     0.00000000    0.00000000    0.00000000
     atom   27 type  1   force =     0.00000000    0.00000000    0.00000000
     atom   28 type  2   force =     0.00000000    0.00000000    0.00000000
     atom   29 type  2   force =     0.00000000    0.00000000    0.00000000
     atom   30 type  1   force =     0.00000000    0.00000000    0.00000000
     atom   31 type  2   force =     0.00000000    0.00000000    0.00000000
     atom   32 type  2   force =     0.00000000    0.00000000    0.00000000
     atom   33 type  1   force =     0.00000000    0.00000000    0.00000000
     atom   34 type  2   force =     0.00000000    0.00000000    0.00000000
     atom   35 type  2   force =     0.00000000    0.00000000    0.00000000
     atom   36 type  3   force =     0.00000000    0.00000000    0.00000000
     The SCF correction term to forces
     atom    1 type  1   force =    -0.00001398    0.00002147    0.00007227
     atom    2 type  2   force =     0.00000169    0.00001789    0.00004218
     atom    3 type  2   force =     0.00000721    0.00002462    0.00001178
     atom    4 type  1   force =     0.00001148   -0.00000921    0.00003775
     atom    5 type  2   force =    -0.00000751   -0.00001569    0.00003318
     atom    6 type  2   force =    -0.00000233   -0.00000555    0.00000210
     atom    7 type  1   force =    -0.00000871   -0.00001720    0.00004534
     atom    8 type  2   force =     0.00000460    0.00000387    0.00002508
     atom    9 type  2   force =     0.00000816   -0.00001344    0.00000137
     atom   10 type  1   force =     0.00001521    0.00001043    0.00008530
     atom   11 type  2   force =    -0.00000418    0.00000133    0.00004469
     atom   12 type  2   force =    -0.00000802   -0.00001488    0.00000393
     atom   13 type  1   force =     0.00000277    0.00003180    0.00008277
     atom   14 type  2   force =    -0.00001168    0.00001947    0.00003745
     atom   15 type  2   force =    -0.00001052    0.00002525    0.00001475
     atom   16 type  1   force =    -0.00003904   -0.00004031    0.00005127
     atom   17 type  2   force =    -0.00000107   -0.00001592    0.00001112
     atom   18 type  2   force =    -0.00000355    0.00000002    0.00001230
     atom   19 type  1   force =    -0.00001358   -0.00001900    0.00003298
     atom   20 type  2   force =    -0.00001372   -0.00000899   -0.00000177
     atom   21 type  1   force =    -0.00001892    0.00003442    0.00006815
     atom   22 type  2   force =     0.00000358    0.00000604    0.00003291
     atom   23 type  2   force =    -0.00000116   -0.00001461    0.00000117
     atom   24 type  1   force =     0.00002623    0.00003198    0.00007682
     atom   25 type  2   force =     0.00000356    0.00002206    0.00003262
     atom   26 type  2   force =     0.00000800    0.00002496    0.00002008
     atom   27 type  1   force =     0.00001767   -0.00002420    0.00003834
     atom   28 type  2   force =     0.00000975   -0.00002226    0.00002843
     atom   29 type  2   force =     0.00001252   -0.00000056    0.00000599
     atom   30 type  1   force =     0.00002002   -0.00002734    0.00003260
     atom   31 type  2   force =    -0.00000167   -0.00000471    0.00001040
     atom   32 type  2   force =     0.00000148   -0.00001226    0.00000278
     atom   33 type  1   force =    -0.00000676    0.00003211    0.00006858
     atom   34 type  2   force =     0.00000115    0.00000453    0.00003358
     atom   35 type  2   force =     0.00001212   -0.00001887    0.00001299
     atom   36 type  3   force =     0.00000057   -0.00000277    0.00000463

     Total force =     0.005715     Total SCF correction =     0.000276
     Energy error            =      8.1E-05 Ry
     Gradient error          =      1.6E-03 Ry/Bohr

     bfgs converged in  18 scf cycles and  17 bfgs steps
     (criteria: energy <  1.0E-04 Ry, force <  1.0E-02 Ry/Bohr)

     End of BFGS Geometry Optimization

     Final energy             =   -2205.5843915916 Ry

     File ./MoS2-V-O.bfgs deleted, as requested
Begin final coordinates

ATOMIC_POSITIONS (angstrom)
Mo            6.5508070504        1.7607742386        2.7575669730
S             8.1249787599        0.8556666795        4.3616939238
S             8.1405034429        0.8545488815        1.1741209034
Mo            8.1378164539        4.4960431331        2.7169662935
S             6.5493092634        3.6577781981        4.3118493478
S             6.5573290253        3.5734767050        1.1248208989
Mo            6.5297874114        7.1878529305        2.6642071209
S             8.0897955567        6.3116110466        4.3031778010
S             8.1442091796        6.3185838744        1.1071384686
Mo            8.1310437200        9.9452481665        2.7591309838
S             6.5265028267        8.9511392335        4.3236341145
S             6.5901329968        9.0306199099        1.1159159957
Mo            3.4185107217        1.7458236143        2.7432379512
S             4.9890514832        0.8065111447        4.3348776455
S             4.9794340104        0.8351430832        1.1622549616
Mo            4.9994721917        4.5658874158        2.6955095515
S             3.4863950695        3.8081303407        4.4692124519
S             3.4538444732        3.5749154798        1.1494745014
Mo            3.4434525991        7.1787815382        2.6464768331
S             4.9925238956        6.3101435769        1.0524370546
Mo            4.9958783282        9.8938160304        2.7210142344
S             3.4576840392        8.9406611521        4.3039340105
S             3.3882034163        9.0394410731        1.1093812659
Mo            0.2786424702        1.7417967326        2.7682401539
S             1.8614251758        0.8397143480        4.3672732528
S             1.8560054266        0.8431359671        1.1612920329
Mo            1.8832726784        4.5144905454        2.7376849176
S             0.2751885664        3.6092931193        4.3199851597
S             0.2896621776        3.5605251783        1.1567531996
Mo            0.2591836828        7.2230331025        2.7271347262
S             1.8864153696        6.3367009563        4.3044562387
S             1.8335772373        6.3158726836        1.0995912305
Mo            1.8463684692        9.9365098583        2.7539520677
S             0.2568639934        9.0334969169        4.3484924981
S             0.2574514256        9.0578244499        1.1589408214
H             3.1638777572        4.6832439950        5.5085102863
End final coordinates

     Writing all to output data dir ./MoS2-V-O.save/

     General routines

     Parallel routines

   This run was terminated on:   2:46:40   4Nov2023

   JOB DONE.