     Program PWSCF v.7.2 starts on  3Nov2023 at 23:46:27

     Waiting for input...
     Reading input from standard input
Warning: card &CELL ignored
Warning: card CELL_DYNAMICS = 'BFGS', ignored
Warning: card CELL_DOFREE = '2DXY' ignored
Warning: card / ignored

     Current dimensions of program PWSCF are:
     Max number of different atomic species (ntypx) = 10
     Max number of k-points (npk) =  40000
     Max angular momentum in pseudopotentials (lmaxx) =  4

     IMPORTANT: XC functional enforced from input :
     Exchange-correlation= RVV10
                           (   1   4  13   4  26   0   0)
     Any further DFT definition will be discarded
     Please, verify this is what you really want

     gamma-point specific algorithms are used
     signal trapping enabled: kill the code with -SIGUSR1 to stop cleanly the simulation

     R & G space division:  proc/nbgrp/npool/nimage =      48
     Subspace diagonalization in iterative solution of the eigenvalue problem:
     one sub-group per band group will be used

     Using Slab Decomposition

     bravais-lattice index     =            0
     lattice parameter (alat)  =      17.8707  a.u.
     unit-cell volume          =   17436.2743 (a.u.)^3
     number of atoms/cell      =           36
     number of atomic types    =            3
     number of electrons       =       307.00
     number of Kohn-Sham states=          185
     kinetic-energy cutoff     =      80.0000  Ry
     charge density cutoff     =     400.0000  Ry
     scf convergence threshold =      1.0E-06
     mixing beta               =       0.7000
     number of iterations used =            8  local-TF  mixing
     energy convergence thresh.=      1.0E-04
     force convergence thresh. =      1.0E-02
     Exchange-correlation= RVV10
                           (   1   4  13   4  26   0   0)
     nstep                     =          200

     celldm(1)=  17.870686  celldm(2)=   0.000000  celldm(3)=   0.000000
     celldm(4)=   0.000000  celldm(5)=   0.000000  celldm(6)=   0.000000

     crystal axes: (cart. coord. in units of alat)
               a(1) = (   1.000000   0.000000   0.000000 )
               a(2) = (   0.000000   1.155671   0.000000 )
               a(3) = (   0.000000   0.000000   2.643601 )

     reciprocal axes: (cart. coord. in units 2 pi/alat)
               b(1) = (  1.000000  0.000000  0.000000 )
               b(2) = (  0.000000  0.865298  0.000000 )
               b(3) = (  0.000000  0.000000  0.378272 )

     PseudoPot. # 1 for Mo read from file:
     ../pseudo/Mo_ONCV_PBE-1.0.oncvpsp.upf
     MD5 check sum: 1b5d28e075c9ccadda658a603575cd1f
     Pseudo is Norm-conserving, Zval = 14.0
     Generated using ONCVPSP code by D. R. Hamann
     Using radial grid of 1526 points,  6 beta functions with:
                l(1) =   0
                l(2) =   0
                l(3) =   1
                l(4) =   1
                l(5) =   2
                l(6) =   2

     PseudoPot. # 2 for S  read from file:
     ../pseudo/s_pbe_v1.4.uspp.F.UPF
     MD5 check sum: 88d86576ff6df21479756cfb9bdac1df
     Pseudo is Ultrasoft + core correction, Zval =  6.0
     Generated by new atomic code, or converted to UPF format
     Using radial grid of  907 points,  6 beta functions with:
                l(1) =   0
                l(2) =   0
                l(3) =   1
                l(4) =   1
                l(5) =   2
                l(6) =   2
     Q(r) pseudized with  8 coefficients,  rinner =    1.300   1.300   1.300
                                                       1.300   1.300

     PseudoPot. # 3 for H  read from file:
     ../pseudo/H_ONCV_PBE-1.0.oncvpsp.upf
     MD5 check sum: 1790becc920ee074925cf490c71280fe
     Pseudo is Norm-conserving, Zval =  1.0
     Generated using ONCVPSP code by D. R. Hamann
     Using radial grid of 1166 points,  2 beta functions with:
                l(1) =   0
                l(2) =   0

     atomic species   valence    mass     pseudopotential
        Mo            14.00    95.94000     Mo( 1.00)
        S              6.00    32.06500     S ( 1.00)
        H              1.00     1.00794     H ( 1.00)

     No symmetry found

   Cartesian axes

     site n.     atom                  positions (alat units)
         1           Mo  tau(   1) = (   0.6952221   0.1890506   0.2985846  )
         2           S   tau(   2) = (   0.8646417   0.0856217   0.4689279  )
         3           S   tau(   3) = (   0.8663890   0.0857843   0.1351291  )
         4           Mo  tau(   4) = (   0.8560186   0.4753274   0.2873942  )
         5           S   tau(   5) = (   0.6873294   0.3936244   0.4596353  )
         6           S   tau(   6) = (   0.6929804   0.3713468   0.1185692  )
         7           Mo  tau(   7) = (   0.6862796   0.7633098   0.2825370  )
         8           S   tau(   8) = (   0.8545980   0.6708292   0.4486168  )
         9           S   tau(   9) = (   0.8545123   0.6666874   0.1146125  )
        10           Mo  tau(  10) = (   0.8629403   1.0471007   0.3006803  )
        11           S   tau(  11) = (   0.6868280   0.9456650   0.4634891  )
        12           S   tau(  12) = (   0.6998113   0.9568511   0.1205389  )
        13           Mo  tau(  13) = (   0.3618216   0.1847309   0.2935964  )
        14           S   tau(  14) = (   0.5260962   0.0863870   0.4600448  )
        15           S   tau(  15) = (   0.5348379   0.0894875   0.1297123  )
        16           Mo  tau(  16) = (   0.5265817   0.4772436   0.2784130  )
        17           S   tau(  17) = (   0.3624753   0.3882513   0.4525556  )
        18           S   tau(  18) = (   0.3635411   0.3752055   0.1119148  )
        19           Mo  tau(  19) = (   0.3652268   0.7630864   0.2781795  )
        20           S   tau(  20) = (   0.5269494   0.6690381   0.1096838  )
        21           Mo  tau(  21) = (   0.5300192   1.0470394   0.2900995  )
        22           S   tau(  22) = (   0.3670346   0.9457522   0.4574073  )
        23           S   tau(  23) = (   0.3604225   0.9585725   0.1159032  )
        24           Mo  tau(  24) = (   0.0313099   0.1847895   0.3013130  )
        25           S   tau(  25) = (   0.1956761   0.0838230   0.4650863  )
        26           S   tau(  26) = (   0.1967693   0.0903508   0.1278874  )
        27           Mo  tau(  27) = (   0.1967578   0.4753919   0.2813011  )
        28           S   tau(  28) = (   0.0287851   0.3864324   0.4586755  )
        29           S   tau(  29) = (   0.0244514   0.3729871   0.1239344  )
        30           Mo  tau(  30) = (   0.0286728   0.7631204   0.2856894  )
        31           S   tau(  31) = (   0.2011512   0.6675435   0.4465001  )
        32           S   tau(  32) = (   0.1969214   0.6672839   0.1104564  )
        33           Mo  tau(  33) = (   0.1950294   1.0511147   0.2932237  )
        34           S   tau(  34) = (   0.0312912   0.9612169   0.4667423  )
        35           S   tau(  35) = (   0.0292670   0.9563028   0.1216485  )
        36           H   tau(  36) = (   1.0000000   0.2568157   0.5407634  )

     number of k points=     1  Gaussian smearing, width (Ry)=  0.0100
                       cart. coord. in units 2pi/alat
        k(    1) = (   0.0000000   0.0000000   0.0000000), wk =   2.0000000

     Initial potential from superposition of free atoms

     starting charge     306.9873, renormalised to     307.0000

     negative rho (up, down):  1.418E-04 0.000E+00

Carrying out rVV10 run using the following parameters:
Nqs =      20    Nr_points =    1024   r_max =   100.000
b_value =  6.30000    beta =  0.00901
     q_mesh =  0.00010000  0.00030000  0.00058939  0.00100810
               0.00161396  0.00249058  0.00375900  0.00559430
               0.00824984  0.01209221  0.01765183  0.02569619
               0.03733578  0.05417739  0.07854596  0.11380545
               0.16482331  0.23864234  0.34545298  0.50000000

Gradients computed in Reciprocal space

     Starting wfcs are  213 randomized atomic wfcs

     Self-consistent Calculation

     iteration #  1     ecut=    80.00 Ry     beta= 0.70
     Davidson diagonalization with overlap
     ethr =  1.00E-02,  avg # of iterations =  2.0

     Threshold (ethr) on eigenvalues was too large:
     Diagonalizing with lowered threshold

     Davidson diagonalization with overlap
     ethr =  3.81E-04,  avg # of iterations =  4.0

[...]

     total energy              =   -2205.60227164 Ry
     estimated scf accuracy    <       1.45607726 Ry

[...]

     End of self-consistent calculation

          k = 0.0000 0.0000 0.0000 (105382 PWs)   bands (ev):

   -62.8904 -62.8767 -62.8733 -62.8253 -62.8134 -62.8087 -62.8019 -62.7899
   -62.7685 -62.6267 -62.6088 -62.5996 -37.2113 -37.1574 -37.1467 -37.1101
   -37.1015 -37.0972 -37.0891 -37.0781 -37.0700 -37.0514 -37.0454 -37.0235
   -37.0134 -37.0071 -36.9971 -36.9896 -36.9852 -36.9821 -36.9772 -36.9675
   -36.9364 -36.9204 -36.9015 -36.8684 -36.8465 -36.8423 -36.8394 -36.8150
   -36.8101 -36.7870 -36.7778 -36.7694 -36.7602 -36.7493 -36.5944 -36.5784
   -16.2482 -15.6371 -15.1075 -15.0640 -14.9238 -14.7903 -14.7061 -14.4567
   -14.4444 -14.4350 -14.3594 -14.3316 -14.3105 -14.2428 -14.1779 -14.1142
   -14.0799 -14.0691 -13.9721 -13.9421 -13.7969 -13.7704 -13.7527  -9.0141
    -7.5716  -7.4365  -7.3077  -7.2597  -7.2300  -7.2146  -7.1145  -7.0489
    -6.8279  -6.7629  -6.7371  -6.6464  -6.6202  -6.5063  -6.4467  -6.3986
    -6.2486  -6.2160  -6.1246  -5.9756  -5.9246  -5.9000  -5.8242  -5.8000
    -5.7078  -5.6988  -5.6657  -5.6245  -5.5910  -5.5770  -5.5442  -5.4687
    -5.4132  -5.3396  -5.1721  -5.1234  -5.0582  -5.0255  -4.9530  -4.9292
    -4.9029  -4.7884  -4.6277  -4.4745  -4.3533  -4.3207  -4.2827  -4.2399
    -4.1775  -4.0836  -3.9847  -3.8813  -3.7783  -3.7685  -3.6932  -3.6855
    -3.6357  -3.5880  -3.5342  -3.5079  -3.4815  -3.4464  -3.4070  -3.3724
    -3.3237  -3.1884  -3.1021  -2.8881  -2.8639  -2.7774  -2.7634  -2.7314
    -2.6810  -2.6426  -2.6116  -2.5630  -2.5107  -2.2474  -1.9971  -1.9607
    -1.8393  -0.7378  -0.6191  -0.6040  -0.1704  -0.1297  -0.0713  -0.0432
     0.0243   0.1125   0.2320   0.2750   0.3108   0.3333   0.3889   0.4158
     0.4754   0.5696   0.5851   0.6103   0.6656   0.7057   0.7405   0.7700
     0.8021   0.8267   0.8708   0.9254   0.9543   1.0061   1.0414   1.2617
     1.4700

     the Fermi energy is    -0.7651 ev

!    total energy              =   -2205.52665525 Ry
     estimated scf accuracy    <       0.00000047 Ry
     smearing contrib. (-TS)   =      -0.00859311 Ry
     internal energy E=F+TS    =   -2205.51806213 Ry

     The total energy is F=E-TS. E is the sum of the following terms:
     one-electron contribution =  -18055.60766337 Ry
     hartree contribution      =    9014.84008325 Ry
     xc contribution           =    -385.34794897 Ry
     ewald contribution        =    7220.59746695 Ry

     convergence has been achieved in  16 iterations

[...]

     Forces acting on atoms (cartesian axes, Ry/au):

     atom    1 type  1   force =     0.01125015   -0.02338353    0.00364523
     atom    2 type  2   force =    -0.02413093    0.01344837    0.00946874
[...]
     atom    3 type  2   force =    -0.00278085   -0.03056256  -37.56657312
     atom    4 type  1   force =     0.74239861    0.09194052    1.76747514
     atom    5 type  2   force =    -1.01383378    1.08538893   38.38094323
     atom    6 type  2   force =     0.33818657   -0.28513288  -38.19321016
     atom    7 type  1   force =    -2.55254260   -2.11735174    2.39256859
     atom    8 type  2   force =    -1.23310782    0.35893923   38.21391424
     atom    9 type  2   force =     0.41035334   -0.03144027  -37.76881576
     atom   10 type  1   force =    -0.31699560   -0.55146945    2.83957988
     atom   11 type  2   force =    -0.45722740   -1.34961465   38.61164130
     atom   12 type  2   force =     0.26342096    0.29894017  -37.98417585
     atom   13 type  1   force =     0.02300629    0.54150358    2.02074463
     atom   14 type  2   force =    -0.05791021   -0.08104153   38.47832529
     atom   15 type  2   force =     0.03695951   -0.09205934  -37.50398353
     atom   16 type  1   force =    -0.08879902    3.81494309    0.61930752
     atom   17 type  2   force =     0.78935295    1.08918125   38.26863955
     atom   18 type  2   force =    -0.22387267   -0.26984119  -38.33393609
     atom   19 type  1   force =     2.43389174   -2.19023298    2.10404743
     atom   20 type  2   force =     0.01178189   -0.08982151  -38.60383114
     atom   21 type  1   force =    -0.00293204   -0.17378060    1.10827725
     atom   22 type  2   force =     0.41331856   -1.38137298   38.60078928
     atom   23 type  2   force =    -0.26483518    0.29853493  -38.01218687
     atom   24 type  1   force =     0.00266421    1.63207109    1.92818433
     atom   25 type  2   force =     0.30687435    0.00872821   38.70837883
     atom   26 type  2   force =    -0.02575043   -0.07409086  -37.64341578
     atom   27 type  1   force =    -0.84784658    0.09004715    0.84446490
     atom   28 type  2   force =     0.58638928    1.23446809   38.18773998
     atom   29 type  2   force =    -0.09050658    0.11486015  -36.68671655
     atom   30 type  1   force =     0.11653175   -0.72836952    1.91215383
     atom   31 type  2   force =     1.29034406    0.24022022   38.05158888
     atom   32 type  2   force =    -0.44266546    0.04162785  -37.85434164
     atom   33 type  1   force =     0.35686971   -0.57698265    2.98707950
     atom   34 type  2   force =     0.03417689   -0.46173810   38.73845348
     atom   35 type  2   force =    -0.00471267    0.02284824  -37.34815486
     atom   36 type  3   force =    -0.21935383   -0.83817315    7.91571317
     The local contribution  to forces
     atom    1 type  1   force =     0.03494883   -0.55655989   -2.20587168
     atom    2 type  2   force =     0.27342891    0.18230661  -38.38982121
     atom    3 type  2   force =     0.00246906    0.04292285   37.31720661
     atom    4 type  1   force =    -0.73372710   -0.09926423   -1.75911256
     atom    5 type  2   force =     1.00273882   -1.05960969  -38.15235925
     atom    6 type  2   force =    -0.32847409    0.28401977   37.94901852
     atom    7 type  1   force =     2.57920625    2.11903633   -2.37648374
     atom    8 type  2   force =     1.22133518   -0.36257480  -37.97265020
     atom    9 type  2   force =    -0.40233580    0.04421897   37.51782254
     atom   10 type  1   force =     0.31518612    0.55356330   -2.83877176
     atom   11 type  2   force =     0.44958686    1.35019864  -38.37348512
     atom   12 type  2   force =    -0.25676316   -0.28703073   37.74317791
     atom   13 type  1   force =    -0.02652725   -0.56350388   -2.01566638
     atom   14 type  2   force =     0.05744921    0.09132587  -38.23362629
     atom   15 type  2   force =    -0.03678727    0.09628283   37.25994053
     atom   16 type  1   force =     0.08890341   -3.86129806   -0.59696941
     atom   17 type  2   force =    -0.78319575   -1.06385282  -38.04339651
     atom   18 type  2   force =     0.21701374    0.26549134   38.08993146
     atom   19 type  1   force =    -2.45985837    2.19294121   -2.08656124
     atom   20 type  2   force =    -0.01108575    0.10330859   38.36365309
     atom   21 type  1   force =     0.00362715    0.15541545   -1.11398175
     atom   22 type  2   force =    -0.40576144    1.38041872  -38.36296019
     atom   23 type  2   force =     0.25826829   -0.28711448   37.77120231
     atom   24 type  1   force =    -0.00262840   -1.63246014   -1.91525665
     atom   25 type  2   force =    -0.30591865    0.00459993  -38.48062417
     atom   26 type  2   force =     0.02481344    0.08601959   37.39593955
     atom   27 type  1   force =     0.83095381   -0.09344779   -0.83743365
     atom   28 type  2   force =    -0.54341328   -0.93222132  -38.05270057
     atom   29 type  2   force =     0.09025817   -0.10584884   36.43706620
     atom   30 type  1   force =    -0.11571114    0.70447633   -1.91975551
     atom   31 type  2   force =    -1.28234095   -0.24952522  -37.81268483
     atom   32 type  2   force =     0.43654762   -0.02877185   37.60303971
     atom   33 type  1   force =    -0.35676016    0.57737364   -2.98731320
     atom   34 type  2   force =    -0.03471729    0.47090039  -38.48741321
     atom   35 type  2   force =     0.00537532   -0.00769750   37.10416646
     atom   36 type  3   force =     0.20777497    0.78862324   -7.88665471
     The core correction contribution to forces
     atom    1 type  1   force =     0.00000000    0.00000000    0.00000000
     atom    2 type  2   force =    -0.00079042   -0.00032818    0.01906457
     atom    3 type  2   force =    -0.00007081    0.00046183   -0.02109437
     atom    4 type  1   force =     0.00000000    0.00000000    0.00000000
     atom    5 type  2   force =    -0.00112528    0.00113008    0.02014339
     atom    6 type  2   force =     0.00064880   -0.00039387   -0.02087233
     atom    7 type  1   force =     0.00000000    0.00000000    0.00000000
     atom    8 type  2   force =    -0.00071118    0.00029465    0.02056725
     atom    9 type  2   force =     0.00063274    0.00073695   -0.02103726
     atom   10 type  1   force =     0.00000000    0.00000000    0.00000000
     atom   11 type  2   force =    -0.00021377   -0.00025361    0.02057429
     atom   12 type  2   force =     0.00057398    0.00090166   -0.02072241
     atom   13 type  1   force =     0.00000000    0.00000000    0.00000000
     atom   14 type  2   force =    -0.00009595    0.00019783    0.02074880
     atom   15 type  2   force =     0.00001150    0.00015564   -0.02070894
     atom   16 type  1   force =     0.00000000    0.00000000    0.00000000
     atom   17 type  2   force =     0.00075181    0.00110318    0.02005488
     atom   18 type  2   force =    -0.00032794   -0.00052672   -0.02089938
     atom   19 type  1   force =     0.00000000    0.00000000    0.00000000
     atom   20 type  2   force =     0.00006990    0.00057630   -0.02104537
     atom   21 type  1   force =     0.00000000    0.00000000    0.00000000
     atom   22 type  2   force =     0.00018399   -0.00037756    0.02055299
     atom   23 type  2   force =    -0.00058244    0.00093632   -0.02071092
     atom   24 type  1   force =     0.00000000    0.00000000    0.00000000
     atom   25 type  2   force =     0.00039225    0.00033594    0.01981977
     atom   26 type  2   force =    -0.00002449    0.00040945   -0.02105611
     atom   27 type  1   force =     0.00000000    0.00000000    0.00000000
     atom   28 type  2   force =     0.00363770    0.02049955    0.01026055
     atom   29 type  2   force =    -0.00017359    0.00057980   -0.02101793
     atom   30 type  1   force =     0.00000000    0.00000000    0.00000000
     atom   31 type  2   force =     0.00061069   -0.00002019    0.02041219
     atom   32 type  2   force =    -0.00059683    0.00084404   -0.02106986
     atom   33 type  1   force =     0.00000000    0.00000000    0.00000000
     atom   34 type  2   force =    -0.00004719    0.00024399    0.02109339
     atom   35 type  2   force =     0.00004504    0.00078262   -0.02086993
     atom   36 type  3   force =     0.00000000    0.00000000    0.00000000
     The Hubbard contrib.    to forces
     atom    1 type  1   force =     0.00000000    0.00000000    0.00000000
     atom    2 type  2   force =     0.00000000    0.00000000    0.00000000
     atom    3 type  2   force =     0.00000000    0.00000000    0.00000000
     atom    4 type  1   force =     0.00000000    0.00000000    0.00000000
     atom    5 type  2   force =     0.00000000    0.00000000    0.00000000
     atom    6 type  2   force =     0.00000000    0.00000000    0.00000000
     atom    7 type  1   force =     0.00000000    0.00000000    0.00000000
     atom    8 type  2   force =     0.00000000    0.00000000    0.00000000
     atom    9 type  2   force =     0.00000000    0.00000000    0.00000000
     atom   10 type  1   force =     0.00000000    0.00000000    0.00000000
     atom   11 type  2   force =     0.00000000    0.00000000    0.00000000
     atom   12 type  2   force =     0.00000000    0.00000000    0.00000000
     atom   13 type  1   force =     0.00000000    0.00000000    0.00000000
     atom   14 type  2   force =     0.00000000    0.00000000    0.00000000
     atom   15 type  2   force =     0.00000000    0.00000000    0.00000000
     atom   16 type  1   force =     0.00000000    0.00000000    0.00000000
     atom   17 type  2   force =     0.00000000    0.00000000    0.00000000
     atom   18 type  2   force =     0.00000000    0.00000000    0.00000000
     atom   19 type  1   force =     0.00000000    0.00000000    0.00000000
     atom   20 type  2   force =     0.00000000    0.00000000    0.00000000
     atom   21 type  1   force =     0.00000000    0.00000000    0.00000000
     atom   22 type  2   force =     0.00000000    0.00000000    0.00000000
     atom   23 type  2   force =     0.00000000    0.00000000    0.00000000
     atom   24 type  1   force =     0.00000000    0.00000000    0.00000000
     atom   25 type  2   force =     0.00000000    0.00000000    0.00000000
     atom   26 type  2   force =     0.00000000    0.00000000    0.00000000
     atom   27 type  1   force =     0.00000000    0.00000000    0.00000000
     atom   28 type  2   force =     0.00000000    0.00000000    0.00000000
     atom   29 type  2   force =     0.00000000    0.00000000    0.00000000
     atom   30 type  1   force =     0.00000000    0.00000000    0.00000000
     atom   31 type  2   force =     0.00000000    0.00000000    0.00000000
     atom   32 type  2   force =     0.00000000    0.00000000    0.00000000
     atom   33 type  1   force =     0.00000000    0.00000000    0.00000000
     atom   34 type  2   force =     0.00000000    0.00000000    0.00000000
     atom   35 type  2   force =     0.00000000    0.00000000    0.00000000
     atom   36 type  3   force =     0.00000000    0.00000000    0.00000000
     The SCF correction term to forces
     atom    1 type  1   force =    -0.00000688   -0.00000074    0.00006808
     atom    2 type  2   force =    -0.00001516    0.00000556    0.00002759
     atom    3 type  2   force =    -0.00000265    0.00000608    0.00000907
     atom    4 type  1   force =    -0.00005553    0.00001494    0.00002624
     atom    5 type  2   force =    -0.00000224   -0.00000511    0.00001309
     atom    6 type  2   force =    -0.00000517    0.00001571    0.00001544
     atom    7 type  1   force =    -0.00000128   -0.00004566    0.00003380
     atom    8 type  2   force =    -0.00002231   -0.00000765    0.00001083
     atom    9 type  2   force =    -0.00001539   -0.00000689    0.00000735
     atom   10 type  1   force =    -0.00001023    0.00000804    0.00004794
     atom   11 type  2   force =     0.00000158    0.00000565    0.00002655
     atom   12 type  2   force =     0.00000043   -0.00000783    0.00001195
     atom   13 type  1   force =     0.00001620    0.00000453    0.00004200
     atom   14 type  2   force =     0.00001141    0.00001049    0.00002635
     atom   15 type  2   force =     0.00000029    0.00001167    0.00001667
     atom   16 type  1   force =     0.00002356    0.00000033    0.00003338
     atom   17 type  2   force =     0.00001876   -0.00001101    0.00000663
     atom   18 type  2   force =     0.00000023    0.00001377    0.00000728
     atom   19 type  1   force =     0.00002873   -0.00001677    0.00000539
     atom   20 type  2   force =     0.00000425   -0.00001025    0.00001288
     atom   21 type  1   force =     0.00001059    0.00000745    0.00004667
     atom   22 type  2   force =     0.00001012    0.00001692    0.00002383
     atom   23 type  2   force =    -0.00000111   -0.00000503   -0.00000174
     atom   24 type  1   force =    -0.00001788   -0.00000262    0.00003556
     atom   25 type  2   force =     0.00000268    0.00000234    0.00002863
     atom   26 type  2   force =     0.00000242    0.00000546   -0.00000278
     atom   27 type  1   force =     0.00004616   -0.00000016   -0.00001490
     atom   28 type  2   force =    -0.00001418   -0.00001783    0.00004703
     atom   29 type  2   force =    -0.00000033   -0.00000032   -0.00000992
     atom   30 type  1   force =    -0.00001850    0.00000463    0.00002990
     atom   31 type  2   force =     0.00000023   -0.00000446    0.00001384
     atom   32 type  2   force =     0.00001022   -0.00001280   -0.00001690
     atom   33 type  1   force =    -0.00000270    0.00001211    0.00003093
     atom   34 type  2   force =    -0.00000951    0.00001062    0.00002441
     atom   35 type  2   force =    -0.00000157   -0.00000209   -0.00000208
     atom   36 type  3   force =    -0.00000130    0.00000067    0.00000409

     Total force =     0.006175     Total SCF correction =     0.000201
     Energy error            =      8.6E-05 Ry
     Gradient error          =      1.7E-03 Ry/Bohr

     bfgs converged in  14 scf cycles and  13 bfgs steps
     (criteria: energy <  1.0E-04 Ry, force <  1.0E-02 Ry/Bohr)

     End of BFGS Geometry Optimization

     Final energy             =   -2205.5636407444 Ry

     File ./MoS2-V-O.bfgs deleted, as requested
Begin final coordinates

ATOMIC_POSITIONS (angstrom)
Mo            6.5689284559        1.7487248098        2.7580010368
S             8.1228278030        0.8333711508        4.3735443089
S             8.1551378058        0.8309593407        1.1729287285
Mo            8.0891575350        4.4992075148        2.7460129414
S             6.4977807906        3.6585500181        4.3155664227
S             6.5782873766        3.5419995749        1.1062987878
Mo            6.5105037973        7.1966543049        2.6710240617
S             8.0626619389        6.3322592519        4.3169101051
S             8.1386329137        6.3050003095        1.1229847560
Mo            8.1431238272        9.9266723885        2.7703620299
S             6.5197983197        8.9513164564        4.3296611279
S             6.5947092662        9.0324755179        1.1259624624
Mo            3.4191110486        1.7496626268        2.7500585030
S             4.9897524836        0.8194756365        4.3390806769
S             4.9957075593        0.8323415125        1.1691921568
Mo            5.0013969951        4.5141722535        2.6452095128
S             3.4966923940        3.6631203642        4.3007313004
S             3.4280822121        3.5376540302        1.0955954931
Mo            3.4852753331        7.1979782999        2.6639582418
S             5.0016258638        6.3098358004        1.0427123320
Mo            4.9968065054        9.9061340777        2.7309787505
S             3.4750134037        8.9466738540        4.3273679608
S             3.3995371973        9.0364422624        1.1228838074
Mo            0.2708948123        1.7234958182        2.7569366722
S             1.8588995763        0.8426135089        4.3694414610
S             1.8330812629        0.8323559079        1.1689601887
Mo            1.9075029663        4.4856310057        2.7191491944
S             0.2393073096        3.7649817647        4.4879058976
S             0.2623984390        3.5653986231        1.1944504508
Mo            0.2727089467        7.1873099248        2.7444464898
S             1.9369226543        6.3119765387        4.3060201283
S             1.8633946768        6.2967027931        1.1124930462
Mo            1.8527308117        9.9294086148        2.7710908884
S             0.2704972655        9.0026654298        4.3609570559
S             0.2707147010        9.0257560643        1.1799929981
H             9.4195027637        2.5706135044        5.1218776007
End final coordinates

     Writing all to output data dir ./MoS2-V-O.save/

     General routines

     Parallel routines

   This run was terminated on:   0: 8:51   4Nov2023

   JOB DONE.