     Program PWSCF v.7.2 starts on  4Nov2023 at 10: 3:42

     Waiting for input...
     Reading input from standard input
Warning: card &CELL ignored
Warning: card CELL_DYNAMICS = 'BFGS', ignored
Warning: card CELL_DOFREE = '2DXY' ignored
Warning: card / ignored

     Current dimensions of program PWSCF are:
     Max number of different atomic species (ntypx) = 10
     Max number of k-points (npk) =  40000
     Max angular momentum in pseudopotentials (lmaxx) =  4

     IMPORTANT: XC functional enforced from input :
     Exchange-correlation= RVV10
                           (   1   4  13   4  26   0   0)
     Any further DFT definition will be discarded
     Please, verify this is what you really want

     gamma-point specific algorithms are used
     signal trapping enabled: kill the code with -SIGUSR1 to stop cleanly the simulation

     R & G space division:  proc/nbgrp/npool/nimage =      48
     Subspace diagonalization in iterative solution of the eigenvalue problem:
     one sub-group per band group will be used

     Using Slab Decomposition

     bravais-lattice index     =            0
     lattice parameter (alat)  =      17.8707  a.u.
     unit-cell volume          =   17436.2743 (a.u.)^3
     number of atoms/cell      =           36
     number of atomic types    =            3
     number of electrons       =       307.00
     number of Kohn-Sham states=          185
     kinetic-energy cutoff     =      80.0000  Ry
     charge density cutoff     =     400.0000  Ry
     scf convergence threshold =      1.0E-06
     mixing beta               =       0.7000
     number of iterations used =            8  local-TF  mixing
     energy convergence thresh.=      1.0E-04
     force convergence thresh. =      1.0E-02
     Exchange-correlation= RVV10
                           (   1   4  13   4  26   0   0)
     nstep                     =          200

     celldm(1)=  17.870686  celldm(2)=   0.000000  celldm(3)=   0.000000
     celldm(4)=   0.000000  celldm(5)=   0.000000  celldm(6)=   0.000000

     crystal axes: (cart. coord. in units of alat)
               a(1) = (   1.000000   0.000000   0.000000 )
               a(2) = (   0.000000   1.155671   0.000000 )
               a(3) = (   0.000000   0.000000   2.643601 )

     reciprocal axes: (cart. coord. in units 2 pi/alat)
               b(1) = (  1.000000  0.000000  0.000000 )
               b(2) = (  0.000000  0.865298  0.000000 )
               b(3) = (  0.000000  0.000000  0.378272 )

     PseudoPot. # 1 for Mo read from file:
     ../pseudo/Mo_ONCV_PBE-1.0.oncvpsp.upf
     MD5 check sum: 1b5d28e075c9ccadda658a603575cd1f
     Pseudo is Norm-conserving, Zval = 14.0
     Generated using ONCVPSP code by D. R. Hamann
     Using radial grid of 1526 points,  6 beta functions with:
                l(1) =   0
                l(2) =   0
                l(3) =   1
                l(4) =   1
                l(5) =   2
                l(6) =   2

     PseudoPot. # 2 for S  read from file:
     ../pseudo/s_pbe_v1.4.uspp.F.UPF
     MD5 check sum: 88d86576ff6df21479756cfb9bdac1df
     Pseudo is Ultrasoft + core correction, Zval =  6.0
     Generated by new atomic code, or converted to UPF format
     Using radial grid of  907 points,  6 beta functions with:
                l(1) =   0
                l(2) =   0
                l(3) =   1
                l(4) =   1
                l(5) =   2
                l(6) =   2
     Q(r) pseudized with  8 coefficients,  rinner =    1.300   1.300   1.300
                                                       1.300   1.300

     PseudoPot. # 3 for H  read from file:
     ../pseudo/H_ONCV_PBE-1.0.oncvpsp.upf
     MD5 check sum: 1790becc920ee074925cf490c71280fe
     Pseudo is Norm-conserving, Zval =  1.0
     Generated using ONCVPSP code by D. R. Hamann
     Using radial grid of 1166 points,  2 beta functions with:
                l(1) =   0
                l(2) =   0

     atomic species   valence    mass     pseudopotential
        Mo            14.00    95.94000     Mo( 1.00)
        S              6.00    32.06500     S ( 1.00)
        H              1.00     1.00794     H ( 1.00)

     No symmetry found

   Cartesian axes

     site n.     atom                  positions (alat units)
         1           Mo  tau(   1) = (   0.6952221   0.1890506   0.2985846  )
         2           S   tau(   2) = (   0.8646417   0.0856217   0.4689279  )
         3           S   tau(   3) = (   0.8663890   0.0857843   0.1351291  )
         4           Mo  tau(   4) = (   0.8560186   0.4753274   0.2873942  )
         5           S   tau(   5) = (   0.6873294   0.3936244   0.4596353  )
         6           S   tau(   6) = (   0.6929804   0.3713468   0.1185692  )
         7           Mo  tau(   7) = (   0.6862796   0.7633098   0.2825370  )
         8           S   tau(   8) = (   0.8545980   0.6708292   0.4486168  )
         9           S   tau(   9) = (   0.8545123   0.6666874   0.1146125  )
        10           Mo  tau(  10) = (   0.8629403   1.0471007   0.3006803  )
        11           S   tau(  11) = (   0.6868280   0.9456650   0.4634891  )
        12           S   tau(  12) = (   0.6998113   0.9568511   0.1205389  )
        13           Mo  tau(  13) = (   0.3618216   0.1847309   0.2935964  )
        14           S   tau(  14) = (   0.5260962   0.0863870   0.4600448  )
        15           S   tau(  15) = (   0.5348379   0.0894875   0.1297123  )
        16           Mo  tau(  16) = (   0.5265817   0.4772436   0.2784130  )
        17           S   tau(  17) = (   0.3624753   0.3882513   0.4525556  )
        18           S   tau(  18) = (   0.3635411   0.3752055   0.1119148  )
        19           Mo  tau(  19) = (   0.3652268   0.7630864   0.2781795  )
        20           S   tau(  20) = (   0.5269494   0.6690381   0.1096838  )
        21           Mo  tau(  21) = (   0.5300192   1.0470394   0.2900995  )
        22           S   tau(  22) = (   0.3670346   0.9457522   0.4574073  )
        23           S   tau(  23) = (   0.3604225   0.9585725   0.1159032  )
        24           Mo  tau(  24) = (   0.0313099   0.1847895   0.3013130  )
        25           S   tau(  25) = (   0.1956761   0.0838230   0.4650863  )
        26           S   tau(  26) = (   0.1967693   0.0903508   0.1278874  )
        27           Mo  tau(  27) = (   0.1967578   0.4753919   0.2813011  )
        28           S   tau(  28) = (   0.0287851   0.3864324   0.4586755  )
        29           S   tau(  29) = (   0.0244514   0.3729871   0.1239344  )
        30           Mo  tau(  30) = (   0.0286728   0.7631204   0.2856894  )
        31           S   tau(  31) = (   0.2011512   0.6675435   0.4465001  )
        32           S   tau(  32) = (   0.1969214   0.6672839   0.1104564  )
        33           Mo  tau(  33) = (   0.1950294   1.0511147   0.2932237  )
        34           S   tau(  34) = (   0.0312912   0.9612169   0.4667423  )
        35           S   tau(  35) = (   0.0292670   0.9563028   0.1216485  )
        36           H   tau(  36) = (   1.0000000   1.0272628   0.5656742  )

     number of k points=     1  Gaussian smearing, width (Ry)=  0.0100
                       cart. coord. in units 2pi/alat
        k(    1) = (   0.0000000   0.0000000   0.0000000), wk =   2.0000000

     Initial potential from superposition of free atoms

     starting charge     306.9873, renormalised to     307.0000

     negative rho (up, down):  1.411E-04 0.000E+00

Carrying out rVV10 run using the following parameters:
Nqs =      20    Nr_points =    1024   r_max =   100.000
b_value =  6.30000    beta =  0.00901
     q_mesh =  0.00010000  0.00030000  0.00058939  0.00100810
               0.00161396  0.00249058  0.00375900  0.00559430
               0.00824984  0.01209221  0.01765183  0.02569619
               0.03733578  0.05417739  0.07854596  0.11380545
               0.16482331  0.23864234  0.34545298  0.50000000

Gradients computed in Reciprocal space

     Starting wfcs are  213 randomized atomic wfcs

     Self-consistent Calculation

     iteration #  1     ecut=    80.00 Ry     beta= 0.70
     Davidson diagonalization with overlap
     ethr =  1.00E-02,  avg # of iterations =  2.0

     Threshold (ethr) on eigenvalues was too large:
     Diagonalizing with lowered threshold

     Davidson diagonalization with overlap
     ethr =  3.87E-04,  avg # of iterations =  4.0

[...]

     total energy              =   -2205.57720731 Ry
     estimated scf accuracy    <       1.47777228 Ry

[...]

     iteration #  5     ecut=    80.00 Ry     beta= 0.70
     Davidson diagonalization with overlap
     c_bands:  1 eigenvalues not converged
     ethr =  1.11E-05,  avg # of iterations = 20.0

[...]

     End of self-consistent calculation

          k = 0.0000 0.0000 0.0000 (105382 PWs)   bands (ev):

   -62.8392 -62.8269 -62.7972 -62.7912 -62.7795 -62.7707 -62.7686 -62.7621
   -62.7531 -62.6349 -62.6183 -62.5214 -37.1564 -37.1322 -37.0989 -37.0833
   -37.0695 -37.0485 -37.0388 -37.0229 -37.0078 -37.0028 -37.0001 -36.9845
   -36.9711 -36.9683 -36.9574 -36.9502 -36.9466 -36.9444 -36.9307 -36.9279
   -36.9256 -36.8851 -36.8590 -36.8505 -36.8364 -36.8309 -36.8158 -36.7875
   -36.7826 -36.7743 -36.7686 -36.7534 -36.6945 -36.6710 -36.5910 -36.5594
   -16.9941 -15.7744 -15.0686 -15.0423 -14.8916 -14.7750 -14.6648 -14.4227
   -14.4025 -14.3773 -14.3092 -14.2799 -14.2719 -14.1997 -14.1452 -14.0650
   -14.0443 -14.0222 -13.9420 -13.9077 -13.7649 -13.7420 -13.7212  -9.6638
    -7.6393  -7.3963  -7.3402  -7.2023  -7.1329  -7.1175  -7.0984  -7.0538
    -6.7828  -6.7303  -6.7231  -6.6874  -6.5571  -6.4856  -6.4288  -6.4106
    -6.3227  -6.2114  -6.1657  -5.9142  -5.8655  -5.8460  -5.7573  -5.7314
    -5.7071  -5.6589  -5.6247  -5.5777  -5.5589  -5.5218  -5.4476  -5.3755
    -5.3523  -5.3209  -5.1849  -5.0899  -5.0770  -5.0485  -4.9001  -4.8942
    -4.8435  -4.7650  -4.5727  -4.5346  -4.4022  -4.2785  -4.2445  -4.1981
    -4.1670  -4.0901  -3.9627  -3.8608  -3.7348  -3.6927  -3.6673  -3.6409
    -3.6073  -3.5316  -3.5037  -3.4299  -3.4198  -3.4054  -3.3853  -3.3053
    -3.2966  -3.2152  -3.0755  -2.8522  -2.8069  -2.7774  -2.7401  -2.6711
    -2.6479  -2.6003  -2.5835  -2.5435  -2.4929  -2.1928  -1.9453  -1.9246
    -1.8979  -0.6729  -0.6428  -0.6044  -0.1319  -0.1104  -0.0053   0.0023
     0.1645   0.1708   0.2366   0.2876   0.3005   0.3757   0.4697   0.5000
     0.5163   0.6174   0.6464   0.6726   0.6869   0.7062   0.7295   0.8047
     0.8387   0.8553   0.9348   0.9774   1.0017   1.0692   1.1315   1.3417
     1.4534

     the Fermi energy is    -0.7370 ev

!    total energy              =   -2205.49947829 Ry
     estimated scf accuracy    <       0.00000029 Ry
     smearing contrib. (-TS)   =      -0.01018865 Ry
     internal energy E=F+TS    =   -2205.48928964 Ry

     The total energy is F=E-TS. E is the sum of the following terms:
     one-electron contribution =  -18051.04360761 Ry
     hartree contribution      =    9012.87358793 Ry
     xc contribution           =    -385.49981695 Ry
     ewald contribution        =    7218.18054699 Ry

     convergence has been achieved in  17 iterations

[...]

     Forces acting on atoms (cartesian axes, Ry/au):

[...]
     atom    3 type  2   force =     0.08025881   -0.13721166  -37.62624062
     atom    4 type  1   force =    -0.35265332    0.42125162    0.07887113
     atom    5 type  2   force =    -0.87486223    1.28562004   38.34472785
     atom    6 type  2   force =     0.07803318   -0.29821955  -38.18231311
     atom    7 type  1   force =    -3.28273691   -1.74661168    1.40522587
     atom    8 type  2   force =    -1.23768867    0.21769506   38.23433181
     atom    9 type  2   force =     0.15039033    0.14233491  -38.27366097
     atom   10 type  1   force =    -0.46677601   -1.05711504    2.79804103
     atom   11 type  2   force =    -0.67004623   -1.69461758   38.35451948
     atom   12 type  2   force =     0.13853368    0.24381061  -37.91279657
     atom   13 type  1   force =     0.33021598    0.67676225    2.80799754
     atom   14 type  2   force =     0.03830352   -0.08099536   38.55593435
     atom   15 type  2   force =    -0.03524360   -0.21134269  -37.40448074
     atom   16 type  1   force =    -0.03536106    3.96619820    1.73343739
     atom   17 type  2   force =     0.91091801    1.31865392   38.39936436
     atom   18 type  2   force =    -0.10831516   -0.30818217  -38.02262535
     atom   19 type  1   force =     3.27218680   -1.74829124    2.09513009
     atom   20 type  2   force =    -0.05957861    0.15733164  -38.27619134
     atom   21 type  1   force =    -0.03088306   -0.70571281    1.38105558
     atom   22 type  2   force =     0.65930306   -1.67416654   38.51227099
     atom   23 type  2   force =    -0.22132857    0.23483271  -37.70993750
     atom   24 type  1   force =    -0.02657956    0.44857958    2.08710519
     atom   25 type  2   force =     0.38861479    0.35874165   38.97777748
     atom   26 type  2   force =    -0.03180084   -0.18242012  -37.49248576
     atom   27 type  1   force =     0.39233712    0.44330325    0.50305833
     atom   28 type  2   force =    -0.02797338    0.64046765   38.13041055
     atom   29 type  2   force =     0.03226464   -0.17202665  -37.73970794
     atom   30 type  1   force =     0.07321682    0.49915037    2.08360713
     atom   31 type  2   force =     1.18145742    0.24133212   38.32353228
     atom   32 type  2   force =    -0.10422631    0.15925907  -38.15771218
     atom   33 type  1   force =     0.50234787   -1.16932810    4.02408729
     atom   34 type  2   force =     0.10287267   -1.95014852   37.39621399
     atom   35 type  2   force =     0.07249500    0.15085830  -36.75074494
     atom   36 type  3   force =    -0.08253995    0.50279964    8.52666968
     The local contribution  to forces
     atom    1 type  1   force =     0.33334864   -0.67789060   -2.05783981
     atom    2 type  2   force =     0.42373511   -0.36477737  -38.50093143
     atom    3 type  2   force =    -0.07636306    0.14634788   37.37956578
     atom    4 type  1   force =     0.35218323   -0.42815074   -0.08174306
     atom    5 type  2   force =     0.87231287   -1.26251991  -38.11242007
     atom    6 type  2   force =    -0.07998823    0.30145428   37.93942413
     atom    7 type  1   force =     3.31000485    1.75110652   -1.39377020
     atom    8 type  2   force =     1.22897611   -0.21510095  -37.99641727
     atom    9 type  2   force =    -0.15129569   -0.13096748   38.02454784
     atom   10 type  1   force =     0.47353870    1.05039565   -2.79518242
     atom   11 type  2   force =     0.65952428    1.68834484  -38.12253614
     atom   12 type  2   force =    -0.13149842   -0.23037254   37.67058339
     atom   13 type  1   force =    -0.33455541   -0.70488358   -2.80188427
     atom   14 type  2   force =    -0.03732966    0.09246558  -38.30967768
     atom   15 type  2   force =     0.03459104    0.21916432   37.16128707
     atom   16 type  1   force =     0.03468640   -4.01227898   -1.70567142
     atom   17 type  2   force =    -0.90816061   -1.29504441  -38.16694409
     atom   18 type  2   force =     0.10947779    0.31137976   37.77898319
     atom   19 type  1   force =    -3.30060914    1.75343819   -2.08237532
     atom   20 type  2   force =     0.05893776   -0.14703063   38.03113131
     atom   21 type  1   force =     0.03106834    0.68154162   -1.38392872
     atom   22 type  2   force =    -0.64835317    1.66776091  -38.27914330
     atom   23 type  2   force =     0.21337600   -0.22108162   37.46766260
     atom   24 type  1   force =     0.02648983   -0.46546895   -2.08831710
     atom   25 type  2   force =    -0.38540676   -0.34385788  -38.74470761
     atom   26 type  2   force =     0.02833967    0.19154436   37.24648028
     atom   27 type  1   force =    -0.39255284   -0.45124992   -0.50561795
     atom   28 type  2   force =     0.02701651   -0.62720874  -37.88016419
     atom   29 type  2   force =    -0.03171265    0.18215231   37.49175737
     atom   30 type  1   force =    -0.07313175   -0.50764453   -2.06801116
     atom   31 type  2   force =    -1.17412064   -0.23811851  -38.08610285
     atom   32 type  2   force =     0.10503277   -0.14825014   37.90906952
     atom   33 type  1   force =    -0.50754169    1.16291527   -4.01788021
     atom   34 type  2   force =    -0.08168685    1.77103954  -37.52407484
     atom   35 type  2   force =    -0.07129044   -0.13903620   36.49761799
     atom   36 type  3   force =     0.08090390   -0.47604259   -8.47900855
     The core correction contribution to forces
     atom    1 type  1   force =     0.00000000    0.00000000    0.00000000
     atom    2 type  2   force =    -0.00040168    0.00105274    0.01991533
     atom    3 type  2   force =     0.00025172    0.00041627   -0.02098140
     atom    4 type  1   force =     0.00000000    0.00000000    0.00000000
     atom    5 type  2   force =    -0.00031633    0.00116665    0.02025885
     atom    6 type  2   force =    -0.00002655   -0.00020494   -0.02074884
     atom    7 type  1   force =     0.00000000    0.00000000    0.00000000
     atom    8 type  2   force =    -0.00063910    0.00024342    0.02054313
     atom    9 type  2   force =     0.00028600    0.00058224   -0.02108540
     atom   10 type  1   force =     0.00000000    0.00000000    0.00000000
     atom   11 type  2   force =    -0.00058500   -0.00084746    0.02011052
     atom   12 type  2   force =     0.00060507    0.00094373   -0.02079543
     atom   13 type  1   force =     0.00000000    0.00000000    0.00000000
     atom   14 type  2   force =     0.00009373    0.00023258    0.02075680
     atom   15 type  2   force =    -0.00012467    0.00025990   -0.02070462
     atom   16 type  1   force =     0.00000000    0.00000000    0.00000000
     atom   17 type  2   force =     0.00039118    0.00124750    0.02023024
     atom   18 type  2   force =     0.00000925   -0.00024481   -0.02071801
     atom   19 type  1   force =     0.00000000    0.00000000    0.00000000
     atom   20 type  2   force =    -0.00008864    0.00052865   -0.02118275
     atom   21 type  1   force =     0.00000000    0.00000000    0.00000000
     atom   22 type  2   force =     0.00064652   -0.00082635    0.02020258
     atom   23 type  2   force =    -0.00071871    0.00093998   -0.02078338
     atom   24 type  1   force =     0.00000000    0.00000000    0.00000000
     atom   25 type  2   force =     0.00032805    0.00116763    0.02012723
     atom   26 type  2   force =    -0.00015870    0.00036079   -0.02099000
     atom   27 type  1   force =     0.00000000    0.00000000    0.00000000
     atom   28 type  2   force =    -0.00006356    0.00104493    0.02093178
     atom   29 type  2   force =     0.00007382    0.00037329   -0.02087090
     atom   30 type  1   force =     0.00000000    0.00000000    0.00000000
     atom   31 type  2   force =     0.00048805    0.00028400    0.02054247
     atom   32 type  2   force =    -0.00024448    0.00059762   -0.02108916
     atom   33 type  1   force =     0.00000000    0.00000000    0.00000000
     atom   34 type  2   force =     0.00139314   -0.01261408   -0.00409202
     atom   35 type  2   force =     0.00014013    0.00082849   -0.02124966
     atom   36 type  3   force =     0.00000000    0.00000000    0.00000000
     The Hubbard contrib.    to forces
     atom    1 type  1   force =     0.00000000    0.00000000    0.00000000
     atom    2 type  2   force =     0.00000000    0.00000000    0.00000000
     atom    3 type  2   force =     0.00000000    0.00000000    0.00000000
     atom    4 type  1   force =     0.00000000    0.00000000    0.00000000
     atom    5 type  2   force =     0.00000000    0.00000000    0.00000000
     atom    6 type  2   force =     0.00000000    0.00000000    0.00000000
     atom    7 type  1   force =     0.00000000    0.00000000    0.00000000
     atom    8 type  2   force =     0.00000000    0.00000000    0.00000000
     atom    9 type  2   force =     0.00000000    0.00000000    0.00000000
     atom   10 type  1   force =     0.00000000    0.00000000    0.00000000
     atom   11 type  2   force =     0.00000000    0.00000000    0.00000000
     atom   12 type  2   force =     0.00000000    0.00000000    0.00000000
     atom   13 type  1   force =     0.00000000    0.00000000    0.00000000
     atom   14 type  2   force =     0.00000000    0.00000000    0.00000000
     atom   15 type  2   force =     0.00000000    0.00000000    0.00000000
     atom   16 type  1   force =     0.00000000    0.00000000    0.00000000
     atom   17 type  2   force =     0.00000000    0.00000000    0.00000000
     atom   18 type  2   force =     0.00000000    0.00000000    0.00000000
     atom   19 type  1   force =     0.00000000    0.00000000    0.00000000
     atom   20 type  2   force =     0.00000000    0.00000000    0.00000000
     atom   21 type  1   force =     0.00000000    0.00000000    0.00000000
     atom   22 type  2   force =     0.00000000    0.00000000    0.00000000
     atom   23 type  2   force =     0.00000000    0.00000000    0.00000000
     atom   24 type  1   force =     0.00000000    0.00000000    0.00000000
     atom   25 type  2   force =     0.00000000    0.00000000    0.00000000
     atom   26 type  2   force =     0.00000000    0.00000000    0.00000000
     atom   27 type  1   force =     0.00000000    0.00000000    0.00000000
     atom   28 type  2   force =     0.00000000    0.00000000    0.00000000
     atom   29 type  2   force =     0.00000000    0.00000000    0.00000000
     atom   30 type  1   force =     0.00000000    0.00000000    0.00000000
     atom   31 type  2   force =     0.00000000    0.00000000    0.00000000
     atom   32 type  2   force =     0.00000000    0.00000000    0.00000000
     atom   33 type  1   force =     0.00000000    0.00000000    0.00000000
     atom   34 type  2   force =     0.00000000    0.00000000    0.00000000
     atom   35 type  2   force =     0.00000000    0.00000000    0.00000000
     atom   36 type  3   force =     0.00000000    0.00000000    0.00000000
     The SCF correction term to forces
     atom    1 type  1   force =    -0.00002321    0.00003431    0.00005868
     atom    2 type  2   force =    -0.00001232    0.00000593    0.00001367
     atom    3 type  2   force =    -0.00000658   -0.00000077    0.00000906
     atom    4 type  1   force =    -0.00009099   -0.00000026    0.00002298
     atom    5 type  2   force =    -0.00002231    0.00001157   -0.00000314
     atom    6 type  2   force =    -0.00001544    0.00002460    0.00003141
     atom    7 type  1   force =    -0.00009344   -0.00003880    0.00001371
     atom    8 type  2   force =    -0.00005924   -0.00000780    0.00000791
     atom    9 type  2   force =    -0.00005200   -0.00000419    0.00000166
     atom   10 type  1   force =    -0.00005242   -0.00000248    0.00002580
     atom   11 type  2   force =    -0.00001350   -0.00002124   -0.00001356
     atom   12 type  2   force =    -0.00000930   -0.00003415    0.00002959
     atom   13 type  1   force =     0.00003507    0.00002778    0.00006891
     atom   14 type  2   force =    -0.00000101    0.00000983    0.00001943
     atom   15 type  2   force =     0.00000697    0.00000413    0.00002201
     atom   16 type  1   force =     0.00002240    0.00006288    0.00003706
     atom   17 type  2   force =     0.00002897    0.00000335    0.00000081
     atom   18 type  2   force =     0.00002087    0.00002852    0.00002306
     atom   19 type  1   force =     0.00011177   -0.00003410    0.00000876
     atom   20 type  2   force =     0.00000723    0.00000250    0.00005010
     atom   21 type  1   force =     0.00001625   -0.00005101    0.00004631
     atom   22 type  2   force =     0.00001610   -0.00001024    0.00000459
     atom   23 type  2   force =     0.00001431   -0.00003223    0.00001653
     atom   24 type  1   force =    -0.00001104    0.00000762    0.00004458
     atom   25 type  2   force =     0.00001199    0.00000081    0.00002618
     atom   26 type  2   force =     0.00000151   -0.00000018    0.00000972
     atom   27 type  1   force =     0.00007081   -0.00000723    0.00000932
     atom   28 type  2   force =    -0.00000591   -0.00000866    0.00001708
     atom   29 type  2   force =    -0.00000464    0.00000711    0.00000268
     atom   30 type  1   force =    -0.00002103   -0.00001955   -0.00002481
     atom   31 type  2   force =     0.00004653   -0.00000472    0.00001499
     atom   32 type  2   force =     0.00004412   -0.00000615   -0.00001549
     atom   33 type  1   force =     0.00003398    0.00001062    0.00003495
     atom   34 type  2   force =    -0.00000612    0.00002244    0.00004960
     atom   35 type  2   force =    -0.00000419    0.00001313   -0.00001720
     atom   36 type  3   force =    -0.00000012   -0.00000037    0.00000234

     Total force =     0.006945     Total SCF correction =     0.000317
     Energy error            =      9.6E-05 Ry
     Gradient error          =      2.6E-03 Ry/Bohr

     bfgs converged in  17 scf cycles and  16 bfgs steps
     (criteria: energy <  1.0E-04 Ry, force <  1.0E-02 Ry/Bohr)

     End of BFGS Geometry Optimization

     Final energy             =   -2205.5802211099 Ry

     File ./MoS2-V-O.bfgs deleted, as requested
Begin final coordinates

ATOMIC_POSITIONS (angstrom)
Mo            6.5544591024        1.7630337532        2.7507676045
S             8.1146122781        0.8673664253        4.3677692021
S             8.1366206380        0.8393211923        1.1690332511
Mo            8.1214406966        4.4820438467        2.6993528554
S             6.5201059943        3.6677280635        4.3035703584
S             6.5528973857        3.5614830031        1.0978684021
Mo            6.5486641755        7.1802284165        2.6477702123
S             8.0736055578        6.2808421487        4.2966212722
S             8.1643406112        6.3051319036        1.0867551431
Mo            8.1181303637        9.9542207749        2.7774844384
S             6.5141393508        8.9264913799        4.3213908619
S             6.5877530412        9.0423724803        1.1205085086
Mo            3.4256566496        1.7620073042        2.7649179919
S             4.9950736461        0.8162385904        4.3440182226
S             4.9836908757        0.8340492871        1.1736444782
Mo            4.9958715193        4.5371424093        2.6515438122
S             3.4723874869        3.6737316748        4.3096614951
S             3.4331647306        3.5580487192        1.1102387308
Mo            3.4354007285        7.1799102240        2.6614882146
S             4.9878657472        6.3237158362        1.0486089394
Mo            4.9897321056        9.8981737285        2.7358540681
S             3.4740979316        8.9267781339        4.3349704341
S             3.3850765870        9.0401219191        1.1348742512
Mo            0.2642800424        1.7383853351        2.7661512825
S             1.8616259861        0.8735942359        4.3854245795
S             1.8506583768        0.8349120118        1.1807775671
Mo            1.8658357536        4.4844195005        2.7078788385
S             0.2626804633        3.6040993261        4.3068058632
S             0.2701417654        3.5448809413        1.1374083515
Mo            0.2609366765        7.1794633474        2.7273363356
S             1.9025087394        6.2847918966        4.3053935657
S             1.8231415744        6.3042663289        1.0952374322
Mo            1.8593937430        9.9567262063        2.7991842242
S             0.2475339686        9.1063480239        4.3981176732
S             0.2682436022        9.0528019195        1.2102536135
H             9.6073391171        9.8106539004        5.5976407447
End final coordinates

     Writing all to output data dir ./MoS2-V-O.save/

     General routines

     Parallel routines

   This run was terminated on:  10:35: 1   4Nov2023

   JOB DONE.