     Program PWSCF v.7.2 starts on  4Nov2023 at  8:36:49

     Waiting for input...
     Reading input from standard input
Warning: card &CELL ignored
Warning: card CELL_DYNAMICS = 'BFGS', ignored
Warning: card CELL_DOFREE = '2DXY' ignored
Warning: card / ignored

     Current dimensions of program PWSCF are:
     Max number of different atomic species (ntypx) = 10
     Max number of k-points (npk) =  40000
     Max angular momentum in pseudopotentials (lmaxx) =  4

     IMPORTANT: XC functional enforced from input :
     Exchange-correlation= RVV10
                           (   1   4  13   4  26   0   0)
     Any further DFT definition will be discarded
     Please, verify this is what you really want

     gamma-point specific algorithms are used
     signal trapping enabled: kill the code with -SIGUSR1 to stop cleanly the simulation

     R & G space division:  proc/nbgrp/npool/nimage =      48
     Subspace diagonalization in iterative solution of the eigenvalue problem:
     one sub-group per band group will be used

     Using Slab Decomposition

     bravais-lattice index     =            0
     lattice parameter (alat)  =      17.8707  a.u.
     unit-cell volume          =   17436.2743 (a.u.)^3
     number of atoms/cell      =           36
     number of atomic types    =            3
     number of electrons       =       307.00
     number of Kohn-Sham states=          185
     kinetic-energy cutoff     =      80.0000  Ry
     charge density cutoff     =     400.0000  Ry
     scf convergence threshold =      1.0E-06
     mixing beta               =       0.7000
     number of iterations used =            8  local-TF  mixing
     energy convergence thresh.=      1.0E-04
     force convergence thresh. =      1.0E-02
     Exchange-correlation= RVV10
                           (   1   4  13   4  26   0   0)
     nstep                     =          200

     celldm(1)=  17.870686  celldm(2)=   0.000000  celldm(3)=   0.000000
     celldm(4)=   0.000000  celldm(5)=   0.000000  celldm(6)=   0.000000

     crystal axes: (cart. coord. in units of alat)
               a(1) = (   1.000000   0.000000   0.000000 )
               a(2) = (   0.000000   1.155671   0.000000 )
               a(3) = (   0.000000   0.000000   2.643601 )

     reciprocal axes: (cart. coord. in units 2 pi/alat)
               b(1) = (  1.000000  0.000000  0.000000 )
               b(2) = (  0.000000  0.865298  0.000000 )
               b(3) = (  0.000000  0.000000  0.378272 )

     PseudoPot. # 1 for Mo read from file:
     ../pseudo/Mo_ONCV_PBE-1.0.oncvpsp.upf
     MD5 check sum: 1b5d28e075c9ccadda658a603575cd1f
     Pseudo is Norm-conserving, Zval = 14.0
     Generated using ONCVPSP code by D. R. Hamann
     Using radial grid of 1526 points,  6 beta functions with:
                l(1) =   0
                l(2) =   0
                l(3) =   1
                l(4) =   1
                l(5) =   2
                l(6) =   2

     PseudoPot. # 2 for S  read from file:
     ../pseudo/s_pbe_v1.4.uspp.F.UPF
     MD5 check sum: 88d86576ff6df21479756cfb9bdac1df
     Pseudo is Ultrasoft + core correction, Zval =  6.0
     Generated by new atomic code, or converted to UPF format
     Using radial grid of  907 points,  6 beta functions with:
                l(1) =   0
                l(2) =   0
                l(3) =   1
                l(4) =   1
                l(5) =   2
                l(6) =   2
     Q(r) pseudized with  8 coefficients,  rinner =    1.300   1.300   1.300
                                                       1.300   1.300

     PseudoPot. # 3 for H  read from file:
     ../pseudo/H_ONCV_PBE-1.0.oncvpsp.upf
     MD5 check sum: 1790becc920ee074925cf490c71280fe
     Pseudo is Norm-conserving, Zval =  1.0
     Generated using ONCVPSP code by D. R. Hamann
     Using radial grid of 1166 points,  2 beta functions with:
                l(1) =   0
                l(2) =   0

     atomic species   valence    mass     pseudopotential
        Mo            14.00    95.94000     Mo( 1.00)
        S              6.00    32.06500     S ( 1.00)
        H              1.00     1.00794     H ( 1.00)

     No symmetry found

   Cartesian axes

     site n.     atom                  positions (alat units)
         1           Mo  tau(   1) = (   0.6952221   0.1890506   0.2985846  )
         2           S   tau(   2) = (   0.8646417   0.0856217   0.4689279  )
         3           S   tau(   3) = (   0.8663890   0.0857843   0.1351291  )
         4           Mo  tau(   4) = (   0.8560186   0.4753274   0.2873942  )
         5           S   tau(   5) = (   0.6873294   0.3936244   0.4596353  )
         6           S   tau(   6) = (   0.6929804   0.3713468   0.1185692  )
         7           Mo  tau(   7) = (   0.6862796   0.7633098   0.2825370  )
         8           S   tau(   8) = (   0.8545980   0.6708292   0.4486168  )
         9           S   tau(   9) = (   0.8545123   0.6666874   0.1146125  )
        10           Mo  tau(  10) = (   0.8629403   1.0471007   0.3006803  )
        11           S   tau(  11) = (   0.6868280   0.9456650   0.4634891  )
        12           S   tau(  12) = (   0.6998113   0.9568511   0.1205389  )
        13           Mo  tau(  13) = (   0.3618216   0.1847309   0.2935964  )
        14           S   tau(  14) = (   0.5260962   0.0863870   0.4600448  )
        15           S   tau(  15) = (   0.5348379   0.0894875   0.1297123  )
        16           Mo  tau(  16) = (   0.5265817   0.4772436   0.2784130  )
        17           S   tau(  17) = (   0.3624753   0.3882513   0.4525556  )
        18           S   tau(  18) = (   0.3635411   0.3752055   0.1119148  )
        19           Mo  tau(  19) = (   0.3652268   0.7630864   0.2781795  )
        20           S   tau(  20) = (   0.5269494   0.6690381   0.1096838  )
        21           Mo  tau(  21) = (   0.5300192   1.0470394   0.2900995  )
        22           S   tau(  22) = (   0.3670346   0.9457522   0.4574073  )
        23           S   tau(  23) = (   0.3604225   0.9585725   0.1159032  )
        24           Mo  tau(  24) = (   0.0313099   0.1847895   0.3013130  )
        25           S   tau(  25) = (   0.1956761   0.0838230   0.4650863  )
        26           S   tau(  26) = (   0.1967693   0.0903508   0.1278874  )
        27           Mo  tau(  27) = (   0.1967578   0.4753919   0.2813011  )
        28           S   tau(  28) = (   0.0287851   0.3864324   0.4586755  )
        29           S   tau(  29) = (   0.0244514   0.3729871   0.1239344  )
        30           Mo  tau(  30) = (   0.0286728   0.7631204   0.2856894  )
        31           S   tau(  31) = (   0.2011512   0.6675435   0.4465001  )
        32           S   tau(  32) = (   0.1969214   0.6672839   0.1104564  )
        33           Mo  tau(  33) = (   0.1950294   1.0511147   0.2932237  )
        34           S   tau(  34) = (   0.0312912   0.9612169   0.4667423  )
        35           S   tau(  35) = (   0.0292670   0.9563028   0.1216485  )
        36           H   tau(  36) = (   0.7777778   0.0000000   0.5407634  )

     number of k points=     1  Gaussian smearing, width (Ry)=  0.0100
                       cart. coord. in units 2pi/alat
        k(    1) = (   0.0000000   0.0000000   0.0000000), wk =   2.0000000

     Initial potential from superposition of free atoms

     starting charge     306.9873, renormalised to     307.0000

     negative rho (up, down):  1.419E-04 0.000E+00

Carrying out rVV10 run using the following parameters:
Nqs =      20    Nr_points =    1024   r_max =   100.000
b_value =  6.30000    beta =  0.00901
     q_mesh =  0.00010000  0.00030000  0.00058939  0.00100810
               0.00161396  0.00249058  0.00375900  0.00559430
               0.00824984  0.01209221  0.01765183  0.02569619
               0.03733578  0.05417739  0.07854596  0.11380545
               0.16482331  0.23864234  0.34545298  0.50000000

Gradients computed in Reciprocal space

     Starting wfcs are  213 randomized atomic wfcs

     Self-consistent Calculation

     iteration #  1     ecut=    80.00 Ry     beta= 0.70
     Davidson diagonalization with overlap
     ethr =  1.00E-02,  avg # of iterations =  2.0

     Threshold (ethr) on eigenvalues was too large:
     Diagonalizing with lowered threshold

     Davidson diagonalization with overlap
     ethr =  3.83E-04,  avg # of iterations =  4.0

[...]

     total energy              =   -2205.60339117 Ry
     estimated scf accuracy    <       1.46284975 Ry

[...]

     iteration #  5     ecut=    80.00 Ry     beta= 0.70
     Davidson diagonalization with overlap
     c_bands:  1 eigenvalues not converged
     ethr =  1.19E-05,  avg # of iterations = 20.0

[...]

     iteration # 13     ecut=    80.00 Ry     beta= 0.70
     Davidson diagonalization with overlap
     c_bands:  1 eigenvalues not converged
     ethr =  7.59E-08,  avg # of iterations = 20.0

[...]

     End of self-consistent calculation

          k = 0.0000 0.0000 0.0000 (105382 PWs)   bands (ev):

   -62.8546 -62.8454 -62.8339 -62.8215 -62.8158 -62.8132 -62.8096 -62.8012
   -62.7663 -62.6710 -62.6476 -62.6298 -37.1906 -37.1324 -37.1200 -37.1129
   -37.1030 -37.0899 -37.0617 -37.0528 -37.0433 -37.0380 -37.0188 -37.0172
   -37.0094 -37.0051 -36.9994 -36.9941 -36.9899 -36.9822 -36.9795 -36.9702
   -36.9276 -36.9155 -36.9002 -36.8751 -36.8684 -36.8509 -36.8468 -36.8286
   -36.8242 -36.8118 -36.8056 -36.8014 -36.7923 -36.7589 -36.6404 -36.6148
   -16.3766 -15.6946 -15.1494 -15.0501 -14.9283 -14.8373 -14.6814 -14.4640
   -14.4343 -14.4180 -14.3677 -14.3420 -14.3194 -14.2555 -14.1565 -14.1199
   -14.0858 -14.0653 -13.9963 -13.9188 -13.8075 -13.7992 -13.7640  -9.0944
    -7.6106  -7.4562  -7.3022  -7.2500  -7.2405  -7.1543  -7.1350  -7.0291
    -6.8204  -6.7704  -6.7503  -6.6822  -6.5918  -6.5112  -6.4642  -6.4082
    -6.3370  -6.2748  -6.0865  -5.9619  -5.9398  -5.8670  -5.8158  -5.7745
    -5.7529  -5.7025  -5.6441  -5.6272  -5.5754  -5.5389  -5.5087  -5.4348
    -5.4242  -5.3393  -5.2479  -5.1459  -5.0439  -4.9980  -4.9649  -4.9291
    -4.8930  -4.7886  -4.6536  -4.5288  -4.4178  -4.3022  -4.2806  -4.2189
    -4.2002  -4.0332  -4.0154  -3.8844  -3.8208  -3.7567  -3.7172  -3.6776
    -3.6608  -3.5891  -3.5320  -3.4784  -3.4751  -3.4430  -3.4076  -3.3567
    -3.3446  -3.1806  -3.1161  -2.8958  -2.8657  -2.7833  -2.7448  -2.6975
    -2.6811  -2.6510  -2.6407  -2.5925  -2.5112  -2.2456  -2.0048  -1.9719
    -1.8686  -0.8062  -0.7099  -0.5732  -0.1722  -0.1110  -0.0957  -0.0209
     0.0335   0.1484   0.1886   0.2493   0.2916   0.3190   0.3501   0.4850
     0.5220   0.5595   0.5864   0.6271   0.6608   0.6789   0.7279   0.7706
     0.7890   0.8341   0.8411   0.9221   0.9809   0.9972   1.0633   1.2875
     1.4025

     the Fermi energy is    -0.8320 ev

!    total energy              =   -2205.53081511 Ry
     estimated scf accuracy    <       0.00000034 Ry
     smearing contrib. (-TS)   =      -0.00811483 Ry
     internal energy E=F+TS    =   -2205.52270028 Ry

     The total energy is F=E-TS. E is the sum of the following terms:
     one-electron contribution =  -18056.01451966 Ry
     hartree contribution      =    9014.99914246 Ry
[...]
     atom    3 type  2   force =    -0.19255492   -0.17852434  -36.75836951
     atom    4 type  1   force =    -0.43996055    0.24828431    0.43066373
     atom    5 type  2   force =    -0.72982556    1.43144550   38.29864849
     atom    6 type  2   force =     0.18334712   -0.45458653  -37.54604763
     atom    7 type  1   force =    -2.78635584   -1.94987118    2.70290129
     atom    8 type  2   force =    -1.12691639    0.05548426   38.08969524
     atom    9 type  2   force =     0.17800604    0.03461336  -37.82930726
     atom   10 type  1   force =    -0.00589588    0.00094630    4.32552349
     atom   11 type  2   force =    -0.72245774   -2.00096964   38.39810615
     atom   12 type  2   force =     0.18432692    0.32486992  -37.58049837
     atom   13 type  1   force =     0.24038994    0.64117217    1.88776891
     atom   14 type  2   force =    -0.61936630    0.02456688   38.41958146
     atom   15 type  2   force =     0.19569839   -0.10053766  -37.35372977
     atom   16 type  1   force =     0.32228157    3.43731868    2.37650794
     atom   17 type  2   force =     0.73077487    1.19891660   38.33920364
     atom   18 type  2   force =     0.04524000   -0.31657390  -38.12859844
     atom   19 type  1   force =     3.03145789   -1.45510099    2.41849920
     atom   20 type  2   force =     0.11682884    0.06814741  -38.51861667
     atom   21 type  1   force =    -0.20306537   -0.75312886    1.10633882
     atom   22 type  2   force =     0.34988706   -1.50499312   38.25076658
     atom   23 type  2   force =    -0.06656400    0.25387740  -37.80216463
     atom   24 type  1   force =    -1.44967712   -0.33962987   -0.24025382
     atom   25 type  2   force =    -0.05371617    0.09957792   38.50541881
     atom   26 type  2   force =     0.08798740   -0.33365340  -38.09993516
     atom   27 type  1   force =     0.13066974    0.46261593   -0.14894794
     atom   28 type  2   force =    -0.04708399    0.29791050   37.92749389
     atom   29 type  2   force =    -0.25391935    0.09449497  -38.15151345
     atom   30 type  1   force =    -0.12243049   -0.61931613    1.54228522
     atom   31 type  2   force =     1.14426933    0.09422973   38.31284092
     atom   32 type  2   force =    -0.34967895    0.12014339  -38.19024491
     atom   33 type  1   force =     0.43453446   -0.44466115    1.95567335
     atom   34 type  2   force =     0.29118652   -0.58529786   38.77739674
     atom   35 type  2   force =    -0.17308688    0.24320022  -37.44323509
     atom   36 type  3   force =    -0.71297741   -0.42542284    8.31438045
     The local contribution  to forces
     atom    1 type  1   force =    -0.69702217   -1.15290683   -4.74967051
     atom    2 type  2   force =    -1.45565797   -1.08229330  -38.63900501
     atom    3 type  2   force =     0.19287295    0.18883920   36.50801757
     atom    4 type  1   force =     0.43286193   -0.25638667   -0.43435147
     atom    5 type  2   force =     0.72640971   -1.40351749  -38.06907554
     atom    6 type  2   force =    -0.18286121    0.45632498   37.30008363
     atom    7 type  1   force =     2.80649015    1.95265827   -2.67717223
     atom    8 type  2   force =     1.12049241   -0.05422867  -37.84553151
     atom    9 type  2   force =    -0.17297215   -0.02231644   37.58222539
     atom   10 type  1   force =     0.00149506   -0.00619202   -4.32166331
     atom   11 type  2   force =     0.71749893    1.99598517  -38.17481712
     atom   12 type  2   force =    -0.17781897   -0.30668364   37.33471603
     atom   13 type  1   force =    -0.23789408   -0.66495965   -1.88685559
     atom   14 type  2   force =     0.61690391   -0.01251491  -38.18818323
     atom   15 type  2   force =    -0.19197458    0.10727402   37.11174282
     atom   16 type  1   force =    -0.31681497   -3.47616099   -2.34275588
     atom   17 type  2   force =    -0.73066442   -1.17685899  -38.10483032
     atom   18 type  2   force =    -0.04200012    0.32022192   37.88286436
     atom   19 type  1   force =    -3.05044374    1.45060740   -2.39344366
     atom   20 type  2   force =    -0.11507712   -0.05506411   38.27717594
     atom   21 type  1   force =     0.20443553    0.72824216   -1.10854352
     atom   22 type  2   force =    -0.34340500    1.50546303  -38.01401920
     atom   23 type  2   force =     0.05802355   -0.24252911   37.55491015
     atom   24 type  1   force =     1.45298512    0.32250443    0.24191609
     atom   25 type  2   force =     0.03822772   -0.08592611  -38.27261191
     atom   26 type  2   force =    -0.08741494    0.33681205   37.85355732
     atom   27 type  1   force =    -0.12711151   -0.47058936    0.14480741
     atom   28 type  2   force =     0.04620897   -0.29821881  -37.68431773
     atom   29 type  2   force =     0.25115975   -0.08394302   37.90337949
     atom   30 type  1   force =     0.11857247    0.60054842   -1.54693538
     atom   31 type  2   force =    -1.13420897   -0.09744654  -38.07092397
     atom   32 type  2   force =     0.34665680   -0.10695212   37.94452388
     atom   33 type  1   force =    -0.43356988    0.43840702   -1.95977904
     atom   34 type  2   force =    -0.28503748    0.59126523  -38.53044162
     atom   35 type  2   force =     0.17052062   -0.22976595   37.19779646
     atom   36 type  3   force =     0.67961569    0.40659318   -8.27640927
     The core correction contribution to forces
     atom    1 type  1   force =     0.00000000    0.00000000    0.00000000
     atom    2 type  2   force =     0.01641900    0.00852398    0.00308219
     atom    3 type  2   force =    -0.00031068    0.00024741   -0.02115469
     atom    4 type  1   force =     0.00000000    0.00000000    0.00000000
     atom    5 type  2   force =    -0.00031281    0.00159216    0.02000157
     atom    6 type  2   force =     0.00008891   -0.00047222   -0.02081121
     atom    7 type  1   force =     0.00000000    0.00000000    0.00000000
     atom    8 type  2   force =    -0.00029243    0.00036503    0.02076683
     atom    9 type  2   force =     0.00050412    0.00068477   -0.02091104
     atom   10 type  1   force =     0.00000000    0.00000000    0.00000000
     atom   11 type  2   force =    -0.00029832   -0.00085515    0.01958865
     atom   12 type  2   force =     0.00065469    0.00126381   -0.02087216
     atom   13 type  1   force =     0.00000000    0.00000000    0.00000000
     atom   14 type  2   force =    -0.00062858    0.00025952    0.02002833
     atom   15 type  2   force =     0.00036741    0.00035591   -0.02071557
     atom   16 type  1   force =     0.00000000    0.00000000    0.00000000
     atom   17 type  2   force =     0.00006388    0.00096309    0.02037720
     atom   18 type  2   force =     0.00011870   -0.00024946   -0.02088002
     atom   19 type  1   force =     0.00000000    0.00000000    0.00000000
     atom   20 type  2   force =     0.00006206    0.00061612   -0.02116914
     atom   21 type  1   force =     0.00000000    0.00000000    0.00000000
     atom   22 type  2   force =    -0.00001931   -0.00021070    0.02038048
     atom   23 type  2   force =    -0.00067956    0.00082790   -0.02090247
     atom   24 type  1   force =     0.00000000    0.00000000    0.00000000
     atom   25 type  2   force =    -0.00086844    0.00072841    0.02026145
     atom   26 type  2   force =     0.00022643    0.00004094   -0.02095480
     atom   27 type  1   force =     0.00000000    0.00000000    0.00000000
     atom   28 type  2   force =     0.00011255    0.00010384    0.02073174
     atom   29 type  2   force =    -0.00015566    0.00056065   -0.02090685
     atom   30 type  1   force =     0.00000000    0.00000000    0.00000000
     atom   31 type  2   force =     0.00047427    0.00007997    0.02077829
     atom   32 type  2   force =    -0.00044791    0.00071333   -0.02095044
     atom   33 type  1   force =     0.00000000    0.00000000    0.00000000
     atom   34 type  2   force =     0.00059388    0.00001369    0.02088826
     atom   35 type  2   force =    -0.00037296    0.00090466   -0.02090467
     atom   36 type  3   force =     0.00000000    0.00000000    0.00000000
     The Hubbard contrib.    to forces
     atom    1 type  1   force =     0.00000000    0.00000000    0.00000000
     atom    2 type  2   force =     0.00000000    0.00000000    0.00000000
     atom    3 type  2   force =     0.00000000    0.00000000    0.00000000
     atom    4 type  1   force =     0.00000000    0.00000000    0.00000000
     atom    5 type  2   force =     0.00000000    0.00000000    0.00000000
     atom    6 type  2   force =     0.00000000    0.00000000    0.00000000
     atom    7 type  1   force =     0.00000000    0.00000000    0.00000000
     atom    8 type  2   force =     0.00000000    0.00000000    0.00000000
     atom    9 type  2   force =     0.00000000    0.00000000    0.00000000
     atom   10 type  1   force =     0.00000000    0.00000000    0.00000000
     atom   11 type  2   force =     0.00000000    0.00000000    0.00000000
     atom   12 type  2   force =     0.00000000    0.00000000    0.00000000
     atom   13 type  1   force =     0.00000000    0.00000000    0.00000000
     atom   14 type  2   force =     0.00000000    0.00000000    0.00000000
     atom   15 type  2   force =     0.00000000    0.00000000    0.00000000
     atom   16 type  1   force =     0.00000000    0.00000000    0.00000000
     atom   17 type  2   force =     0.00000000    0.00000000    0.00000000
     atom   18 type  2   force =     0.00000000    0.00000000    0.00000000
     atom   19 type  1   force =     0.00000000    0.00000000    0.00000000
     atom   20 type  2   force =     0.00000000    0.00000000    0.00000000
     atom   21 type  1   force =     0.00000000    0.00000000    0.00000000
     atom   22 type  2   force =     0.00000000    0.00000000    0.00000000
     atom   23 type  2   force =     0.00000000    0.00000000    0.00000000
     atom   24 type  1   force =     0.00000000    0.00000000    0.00000000
     atom   25 type  2   force =     0.00000000    0.00000000    0.00000000
     atom   26 type  2   force =     0.00000000    0.00000000    0.00000000
     atom   27 type  1   force =     0.00000000    0.00000000    0.00000000
     atom   28 type  2   force =     0.00000000    0.00000000    0.00000000
     atom   29 type  2   force =     0.00000000    0.00000000    0.00000000
     atom   30 type  1   force =     0.00000000    0.00000000    0.00000000
     atom   31 type  2   force =     0.00000000    0.00000000    0.00000000
     atom   32 type  2   force =     0.00000000    0.00000000    0.00000000
     atom   33 type  1   force =     0.00000000    0.00000000    0.00000000
     atom   34 type  2   force =     0.00000000    0.00000000    0.00000000
     atom   35 type  2   force =     0.00000000    0.00000000    0.00000000
     atom   36 type  3   force =     0.00000000    0.00000000    0.00000000
     The SCF correction term to forces
     atom    1 type  1   force =    -0.00000822    0.00007953    0.00009857
     atom    2 type  2   force =     0.00000091    0.00005181    0.00001509
     atom    3 type  2   force =    -0.00000755    0.00003034   -0.00000947
     atom    4 type  1   force =    -0.00002091    0.00003137    0.00005587
     atom    5 type  2   force =     0.00000739   -0.00001887    0.00000623
     atom    6 type  2   force =    -0.00001650   -0.00001427    0.00003737
     atom    7 type  1   force =    -0.00003981    0.00002624    0.00005207
     atom    8 type  2   force =    -0.00000091    0.00000376    0.00001740
     atom    9 type  2   force =     0.00001122   -0.00000483    0.00000879
     atom   10 type  1   force =    -0.00002609   -0.00008424    0.00005895
     atom   11 type  2   force =    -0.00001975   -0.00003106    0.00001478
     atom   12 type  2   force =    -0.00001997   -0.00001767   -0.00000098
     atom   13 type  1   force =     0.00005527    0.00002511    0.00004717
     atom   14 type  2   force =     0.00000063    0.00002091    0.00003506
     atom   15 type  2   force =     0.00000495    0.00001731   -0.00000377
     atom   16 type  1   force =     0.00006137   -0.00000509    0.00007263
     atom   17 type  2   force =     0.00000359   -0.00000494    0.00002537
     atom   18 type  2   force =     0.00002591    0.00001455    0.00000608
     atom   19 type  1   force =     0.00000120    0.00003306    0.00006660
     atom   20 type  2   force =    -0.00002568    0.00001421    0.00001840
     atom   21 type  1   force =     0.00003241   -0.00008781   -0.00000155
     atom   22 type  2   force =     0.00000163   -0.00004483    0.00002255
     atom   23 type  2   force =     0.00000249   -0.00003657   -0.00000121
     atom   24 type  1   force =    -0.00007541    0.00005810    0.00008865
     atom   25 type  2   force =     0.00000455   -0.00000111    0.00004970
     atom   26 type  2   force =     0.00001427   -0.00000749   -0.00001505
     atom   27 type  1   force =    -0.00004174    0.00009294    0.00007137
     atom   28 type  2   force =    -0.00000982   -0.00001253    0.00002959
     atom   29 type  2   force =     0.00000370    0.00001562    0.00000745
     atom   30 type  1   force =     0.00004260   -0.00000551    0.00002447
     atom   31 type  2   force =    -0.00000236    0.00001646    0.00000656
     atom   32 type  2   force =     0.00000669    0.00000656    0.00001212
     atom   33 type  1   force =     0.00001650   -0.00005203    0.00000897
     atom   34 type  2   force =     0.00001347   -0.00002082    0.00002660
     atom   35 type  2   force =     0.00001509   -0.00003369   -0.00000557
     atom   36 type  3   force =     0.00000040    0.00000296    0.00000380

     Total force =     0.006020     Total SCF correction =     0.000360
     Energy error            =      8.3E-05 Ry
     Gradient error          =      2.0E-03 Ry/Bohr

     bfgs converged in  22 scf cycles and  21 bfgs steps
     (criteria: energy <  1.0E-04 Ry, force <  1.0E-02 Ry/Bohr)

     End of BFGS Geometry Optimization

     Final energy             =   -2205.5811665766 Ry

     File ./MoS2-V-O.bfgs deleted, as requested
Begin final coordinates

ATOMIC_POSITIONS (angstrom)
Mo            6.5678472081        1.7402572722        2.8033863152
S             8.0499331778        0.7633551928        4.5338478037
S             8.1371428314        0.8340826182        1.2066356896
Mo            8.1472060606        4.4777796394        2.7018821339
S             6.5365607567        3.6798746532        4.3151349266
S             6.5630345486        3.5385397998        1.1302853485
Mo            6.5283235496        7.1671739268        2.6663540827
S             8.1109715906        6.2926603118        4.2895321075
S             8.1504452634        6.3154683360        1.1064944034
Mo            8.1406759382        9.9235894893        2.8002839317
S             6.5084742468        8.9198445406        4.3356681771
S             6.6080794061        9.0281260824        1.1438390234
Mo            3.4325715940        1.7568974573        2.7404717194
S             4.9648844281        0.8151087641        4.3425213700
S             5.0274705508        0.8379535351        1.1747074327
Mo            5.0009354990        4.5352295631        2.6589409187
S             3.4649482510        3.6594674492        4.2991207634
S             3.4545332033        3.5622252178        1.0930719103
Mo            3.4695742213        7.1730482960        2.6564555499
S             5.0057225886        6.3055575908        1.0412705595
Mo            4.9967406032        9.9044791218        2.7321857909
S             3.4453723228        8.9548421960        4.3066841883
S             3.4058335000        9.0378553162        1.1172601466
Mo            0.3073240378        1.7666001557        2.6909906838
S             1.8427062617        0.8626223109        4.3338315936
S             1.8676980409        0.8496520503        1.1231853790
Mo            1.8819221209        4.5018214747        2.6858161721
S             0.2940772700        3.5964781181        4.2871763078
S             0.2894509625        3.5698117859        1.1017173190
Mo            0.2824670253        7.2133631797        2.7220648184
S             1.9185210771        6.2981317934        4.2934510162
S             1.8641049439        6.3346378808        1.0854692193
Mo            1.8428044241        9.9503320471        2.7443947140
S             0.2931300422        9.0099233353        4.3589931453
S             0.2537000082        9.0502621168        1.1654505246
H             7.1724172351        0.2538937920        5.5021723903
End final coordinates

     Writing all to output data dir ./MoS2-V-O.save/

     General routines

     Parallel routines

   This run was terminated on:   9:14:29   4Nov2023

   JOB DONE.