     Program PWSCF v.7.2 starts on  4Nov2023 at  1:51: 6

     Waiting for input...
     Reading input from standard input
Warning: card &CELL ignored
Warning: card CELL_DYNAMICS = 'BFGS', ignored
Warning: card CELL_DOFREE = '2DXY' ignored
Warning: card / ignored

     Current dimensions of program PWSCF are:
     Max number of different atomic species (ntypx) = 10
     Max number of k-points (npk) =  40000
     Max angular momentum in pseudopotentials (lmaxx) =  4

     IMPORTANT: XC functional enforced from input :
     Exchange-correlation= RVV10
                           (   1   4  13   4  26   0   0)
     Any further DFT definition will be discarded
     Please, verify this is what you really want

     gamma-point specific algorithms are used
     signal trapping enabled: kill the code with -SIGUSR1 to stop cleanly the simulation

     R & G space division:  proc/nbgrp/npool/nimage =      48
     Subspace diagonalization in iterative solution of the eigenvalue problem:
     one sub-group per band group will be used

     Using Slab Decomposition

     bravais-lattice index     =            0
     lattice parameter (alat)  =      17.8707  a.u.
     unit-cell volume          =   17436.2743 (a.u.)^3
     number of atoms/cell      =           36
     number of atomic types    =            3
     number of electrons       =       307.00
     number of Kohn-Sham states=          185
     kinetic-energy cutoff     =      80.0000  Ry
     charge density cutoff     =     400.0000  Ry
     scf convergence threshold =      1.0E-06
     mixing beta               =       0.7000
     number of iterations used =            8  local-TF  mixing
     energy convergence thresh.=      1.0E-04
     force convergence thresh. =      1.0E-02
     Exchange-correlation= RVV10
                           (   1   4  13   4  26   0   0)
     nstep                     =          200

     celldm(1)=  17.870686  celldm(2)=   0.000000  celldm(3)=   0.000000
     celldm(4)=   0.000000  celldm(5)=   0.000000  celldm(6)=   0.000000

     crystal axes: (cart. coord. in units of alat)
               a(1) = (   1.000000   0.000000   0.000000 )
               a(2) = (   0.000000   1.155671   0.000000 )
               a(3) = (   0.000000   0.000000   2.643601 )

     reciprocal axes: (cart. coord. in units 2 pi/alat)
               b(1) = (  1.000000  0.000000  0.000000 )
               b(2) = (  0.000000  0.865298  0.000000 )
               b(3) = (  0.000000  0.000000  0.378272 )

     PseudoPot. # 1 for Mo read from file:
     ../pseudo/Mo_ONCV_PBE-1.0.oncvpsp.upf
     MD5 check sum: 1b5d28e075c9ccadda658a603575cd1f
     Pseudo is Norm-conserving, Zval = 14.0
     Generated using ONCVPSP code by D. R. Hamann
     Using radial grid of 1526 points,  6 beta functions with:
                l(1) =   0
                l(2) =   0
                l(3) =   1
                l(4) =   1
                l(5) =   2
                l(6) =   2

     PseudoPot. # 2 for S  read from file:
     ../pseudo/s_pbe_v1.4.uspp.F.UPF
     MD5 check sum: 88d86576ff6df21479756cfb9bdac1df
     Pseudo is Ultrasoft + core correction, Zval =  6.0
     Generated by new atomic code, or converted to UPF format
     Using radial grid of  907 points,  6 beta functions with:
                l(1) =   0
                l(2) =   0
                l(3) =   1
                l(4) =   1
                l(5) =   2
                l(6) =   2
     Q(r) pseudized with  8 coefficients,  rinner =    1.300   1.300   1.300
                                                       1.300   1.300

     PseudoPot. # 3 for H  read from file:
     ../pseudo/H_ONCV_PBE-1.0.oncvpsp.upf
     MD5 check sum: 1790becc920ee074925cf490c71280fe
     Pseudo is Norm-conserving, Zval =  1.0
     Generated using ONCVPSP code by D. R. Hamann
     Using radial grid of 1166 points,  2 beta functions with:
                l(1) =   0
                l(2) =   0

     atomic species   valence    mass     pseudopotential
        Mo            14.00    95.94000     Mo( 1.00)
        S              6.00    32.06500     S ( 1.00)
        H              1.00     1.00794     H ( 1.00)

     No symmetry found

   Cartesian axes

     site n.     atom                  positions (alat units)
         1           Mo  tau(   1) = (   0.6952221   0.1890506   0.2985846  )
         2           S   tau(   2) = (   0.8646417   0.0856217   0.4689279  )
         3           S   tau(   3) = (   0.8663890   0.0857843   0.1351291  )
         4           Mo  tau(   4) = (   0.8560186   0.4753274   0.2873942  )
         5           S   tau(   5) = (   0.6873294   0.3936244   0.4596353  )
         6           S   tau(   6) = (   0.6929804   0.3713468   0.1185692  )
         7           Mo  tau(   7) = (   0.6862796   0.7633098   0.2825370  )
         8           S   tau(   8) = (   0.8545980   0.6708292   0.4486168  )
         9           S   tau(   9) = (   0.8545123   0.6666874   0.1146125  )
        10           Mo  tau(  10) = (   0.8629403   1.0471007   0.3006803  )
        11           S   tau(  11) = (   0.6868280   0.9456650   0.4634891  )
        12           S   tau(  12) = (   0.6998113   0.9568511   0.1205389  )
        13           Mo  tau(  13) = (   0.3618216   0.1847309   0.2935964  )
        14           S   tau(  14) = (   0.5260962   0.0863870   0.4600448  )
        15           S   tau(  15) = (   0.5348379   0.0894875   0.1297123  )
        16           Mo  tau(  16) = (   0.5265817   0.4772436   0.2784130  )
        17           S   tau(  17) = (   0.3624753   0.3882513   0.4525556  )
        18           S   tau(  18) = (   0.3635411   0.3752055   0.1119148  )
        19           Mo  tau(  19) = (   0.3652268   0.7630864   0.2781795  )
        20           S   tau(  20) = (   0.5269494   0.6690381   0.1096838  )
        21           Mo  tau(  21) = (   0.5300192   1.0470394   0.2900995  )
        22           S   tau(  22) = (   0.3670346   0.9457522   0.4574073  )
        23           S   tau(  23) = (   0.3604225   0.9585725   0.1159032  )
        24           Mo  tau(  24) = (   0.0313099   0.1847895   0.3013130  )
        25           S   tau(  25) = (   0.1956761   0.0838230   0.4650863  )
        26           S   tau(  26) = (   0.1967693   0.0903508   0.1278874  )
        27           Mo  tau(  27) = (   0.1967578   0.4753919   0.2813011  )
        28           S   tau(  28) = (   0.0287851   0.3864324   0.4586755  )
        29           S   tau(  29) = (   0.0244514   0.3729871   0.1239344  )
        30           Mo  tau(  30) = (   0.0286728   0.7631204   0.2856894  )
        31           S   tau(  31) = (   0.2011512   0.6675435   0.4465001  )
        32           S   tau(  32) = (   0.1969214   0.6672839   0.1104564  )
        33           Mo  tau(  33) = (   0.1950294   1.0511147   0.2932237  )
        34           S   tau(  34) = (   0.0312912   0.9612169   0.4667423  )
        35           S   tau(  35) = (   0.0292670   0.9563028   0.1216485  )
        36           H   tau(  36) = (   0.3333333   0.0000000   0.5650415  )

     number of k points=     1  Gaussian smearing, width (Ry)=  0.0100
                       cart. coord. in units 2pi/alat
        k(    1) = (   0.0000000   0.0000000   0.0000000), wk =   2.0000000

     Initial potential from superposition of free atoms

     starting charge     306.9873, renormalised to     307.0000

     negative rho (up, down):  1.411E-04 0.000E+00

Carrying out rVV10 run using the following parameters:
Nqs =      20    Nr_points =    1024   r_max =   100.000
b_value =  6.30000    beta =  0.00901
     q_mesh =  0.00010000  0.00030000  0.00058939  0.00100810
               0.00161396  0.00249058  0.00375900  0.00559430
               0.00824984  0.01209221  0.01765183  0.02569619
               0.03733578  0.05417739  0.07854596  0.11380545
               0.16482331  0.23864234  0.34545298  0.50000000

Gradients computed in Reciprocal space

     Starting wfcs are  213 randomized atomic wfcs

     Self-consistent Calculation

     iteration #  1     ecut=    80.00 Ry     beta= 0.70
     Davidson diagonalization with overlap
     ethr =  1.00E-02,  avg # of iterations =  2.0

     Threshold (ethr) on eigenvalues was too large:
     Diagonalizing with lowered threshold

     Davidson diagonalization with overlap
     ethr =  3.55E-04,  avg # of iterations =  4.0

[...]

     total energy              =   -2205.58604771 Ry
     estimated scf accuracy    <       1.37670258 Ry

[...]

     iteration # 12     ecut=    80.00 Ry     beta= 0.70
     Davidson diagonalization with overlap
     c_bands:  1 eigenvalues not converged
     ethr =  4.36E-08,  avg # of iterations = 20.0

[...]

     End of self-consistent calculation

          k = 0.0000 0.0000 0.0000 (105382 PWs)   bands (ev):

   -62.8907 -62.8823 -62.8696 -62.8582 -62.8406 -62.8322 -62.8194 -62.8109
   -62.8078 -62.7984 -62.7800 -62.7582 -37.2380 -37.1780 -37.1573 -37.1552
   -37.1331 -37.1150 -37.0912 -37.0821 -37.0786 -37.0773 -37.0694 -37.0479
   -37.0431 -37.0385 -37.0303 -37.0177 -37.0157 -37.0104 -37.0005 -36.9823
   -36.9794 -36.9666 -36.9644 -36.9484 -36.9409 -36.9310 -36.9270 -36.9121
   -36.9104 -36.8922 -36.8838 -36.8670 -36.8592 -36.8025 -36.7662 -36.7191
   -16.0334 -15.2624 -15.1843 -15.0466 -14.9323 -14.8522 -14.6179 -14.5200
   -14.4645 -14.4299 -14.3957 -14.3860 -14.3568 -14.2994 -14.1759 -14.1485
   -14.1327 -14.1199 -14.0508 -13.9334 -13.8555 -13.8318 -13.8093  -8.0524
    -7.6322  -7.4408  -7.3072  -7.2684  -7.2562  -7.1980  -7.1448  -6.9516
    -6.8513  -6.7931  -6.7807  -6.6952  -6.5881  -6.5213  -6.4808  -6.4281
    -6.3517  -6.2823  -6.0204  -5.9869  -5.9218  -5.9139  -5.8254  -5.8043
    -5.7740  -5.7213  -5.6963  -5.6750  -5.6220  -5.5554  -5.5454  -5.4805
    -5.4328  -5.3931  -5.2177  -5.1624  -5.0616  -5.0198  -5.0011  -4.9717
    -4.9218  -4.8395  -4.6698  -4.5396  -4.4171  -4.3355  -4.3169  -4.2423
    -4.1892  -4.1007  -4.0420  -3.9172  -3.8347  -3.8060  -3.7490  -3.7157
    -3.6819  -3.5849  -3.5556  -3.5205  -3.4949  -3.4671  -3.4534  -3.4007
    -3.3829  -3.2119  -3.1385  -2.9354  -2.8969  -2.8043  -2.7827  -2.7524
    -2.7292  -2.7013  -2.6545  -2.6433  -2.5839  -2.3182  -2.0878  -2.0069
    -1.9288  -1.0948  -0.8168  -0.6711  -0.1916  -0.1488  -0.1186  -0.0434
     0.0523   0.1055   0.1401   0.2241   0.2438   0.2593   0.3664   0.4370
     0.4636   0.5283   0.5490   0.5652   0.5945   0.6431   0.7082   0.7327
     0.7487   0.7731   0.8318   0.8579   0.9440   0.9475   1.0352   1.2958
     1.3660

     the Fermi energy is    -1.0953 ev

!    total energy              =   -2205.51756159 Ry
     estimated scf accuracy    <       0.00000053 Ry
     smearing contrib. (-TS)   =      -0.00572783 Ry
     internal energy E=F+TS    =   -2205.51183375 Ry

     The total energy is F=E-TS. E is the sum of the following terms:
     one-electron contribution =  -18047.68479458 Ry
     hartree contribution      =    9010.49211028 Ry
     xc contribution           =    -385.22128338 Ry
     ewald contribution        =    7216.90213393 Ry

     convergence has been achieved in  14 iterations

[...]

     Forces acting on atoms (cartesian axes, Ry/au):

[...]
     atom    3 type  2   force =    -0.07052925   -0.29220109  -38.11675605
     atom    4 type  1   force =    -0.12866311    0.43797953   -0.12617569
     atom    5 type  2   force =    -0.70771995    1.18231421   38.27994062
     atom    6 type  2   force =    -0.04021092   -0.28633297  -38.11206520
     atom    7 type  1   force =    -2.96951606   -1.63720631    2.45668239
     atom    8 type  2   force =    -1.16707292    0.05395832   38.32068706
     atom    9 type  2   force =     0.33549383    0.09902812  -38.09190757
     atom   10 type  1   force =    -0.41269124   -0.42633175    1.96211655
     atom   11 type  2   force =    -0.32725375   -1.49162573   38.27860848
     atom   12 type  2   force =     0.08944807    0.24683505  -37.86671772
     atom   13 type  1   force =    -0.66531496    1.25738367    4.92097053
     atom   14 type  2   force =     0.66889318    0.05687249   38.38017753
     atom   15 type  2   force =    -0.19243642   -0.05384646  -37.35669071
     atom   16 type  1   force =    -0.27195959    3.42724460    2.24530086
     atom   17 type  2   force =     0.74541868    1.41575444   38.29480671
     atom   18 type  2   force =    -0.17100564   -0.45484761  -37.52081021
     atom   19 type  1   force =     2.80188418   -2.04623364    2.73043494
     atom   20 type  2   force =    -0.09542827    0.03016878  -38.50058653
     atom   21 type  1   force =     0.23718535   -0.69645102    0.88450529
     atom   22 type  2   force =     0.73565471   -2.01306095   38.37698257
     atom   23 type  2   force =    -0.21972567    0.31219122  -37.64248346
     atom   24 type  1   force =     1.34799898   -0.24060787   -0.49467476
     atom   25 type  2   force =    -1.74221382    1.28835923   38.82608395
     atom   26 type  2   force =     0.20271918   -0.14766264  -36.83766461
     atom   27 type  1   force =     0.38899183    0.21391975    0.52375330
     atom   28 type  2   force =     0.01580234    0.28017318   37.87309028
     atom   29 type  2   force =     0.23866996    0.10097145  -38.16656151
     atom   30 type  1   force =     0.08557214   -0.64651610    1.96062401
     atom   31 type  2   force =     1.11958441    0.01324200   38.15018135
     atom   32 type  2   force =    -0.19576824    0.02181771  -37.77005965
     atom   33 type  1   force =    -0.06580116   -0.04790101    4.32298401
     atom   34 type  2   force =    -0.32353440   -0.57506028   38.80195171
     atom   35 type  2   force =     0.17674515    0.20591156  -37.41243150
     atom   36 type  3   force =     0.72108077   -0.44806212    8.29437101
     The local contribution  to forces
     atom    1 type  1   force =     0.19492777   -0.73675075   -1.71621964
     atom    2 type  2   force =    -0.03634536   -0.13353410  -38.18037397
     atom    3 type  2   force =     0.07023168    0.29554156   37.87007604
     atom    4 type  1   force =     0.12491295   -0.44501055    0.12195099
     atom    5 type  2   force =     0.70757392   -1.16064309  -38.04523522
     atom    6 type  2   force =     0.03686673    0.29022332   37.86571326
     atom    7 type  1   force =     2.98694158    1.63088067   -2.43151710
     atom    8 type  2   force =     1.15687532   -0.05753814  -38.07844893
     atom    9 type  2   force =    -0.33218466   -0.08592462   37.84538550
     atom   10 type  1   force =     0.41239076    0.42014112   -1.96687210
     atom   11 type  2   force =     0.32073072    1.49208394  -38.04195644
     atom   12 type  2   force =    -0.08027277   -0.23590881   37.61961313
     atom   13 type  1   force =     0.66944304   -1.28001571   -4.91129695
     atom   14 type  2   force =    -0.66591865   -0.04448807  -38.14792155
     atom   15 type  2   force =     0.18847685    0.06129206   37.11413493
     atom   16 type  1   force =     0.26656620   -3.46629400   -2.21133082
     atom   17 type  2   force =    -0.74205721   -1.38805891  -38.06503666
     atom   18 type  2   force =     0.17047069    0.45638360   37.27469839
     atom   19 type  1   force =    -2.82051457    2.04709053   -2.70506812
     atom   20 type  2   force =     0.09371968   -0.01741913   38.25861587
     atom   21 type  1   force =    -0.23844959    0.67314233   -0.88673484
     atom   22 type  2   force =    -0.73074296    2.00860373  -38.15458524
     atom   23 type  2   force =     0.21299125   -0.29433535   37.39719336
     atom   24 type  1   force =    -1.35532753    0.22729606    0.49246694
     atom   25 type  2   force =     1.50354423   -1.16256280  -38.80022129
     atom   26 type  2   force =    -0.20305221    0.15824827   36.58836023
     atom   27 type  1   force =    -0.38233384   -0.22257916   -0.52749136
     atom   28 type  2   force =    -0.01494180   -0.28101660  -37.62953342
     atom   29 type  2   force =    -0.23586605   -0.08999721   37.91893283
     atom   30 type  1   force =    -0.08286485    0.62865147   -1.96557672
     atom   31 type  2   force =    -1.11302804   -0.01229450  -37.90592398
     atom   32 type  2   force =     0.19025804   -0.00942996   37.52259670
     atom   33 type  1   force =     0.07032639    0.03826458   -4.32112264
     atom   34 type  2   force =     0.31715094    0.58136240  -38.55481260
     atom   35 type  2   force =    -0.17410038   -0.19293756   37.16735545
     atom   36 type  3   force =    -0.68785481    0.42873196   -8.25723816
     The core correction contribution to forces
     atom    1 type  1   force =     0.00000000    0.00000000    0.00000000
     atom    2 type  2   force =     0.00087396    0.00077848    0.02025471
     atom    3 type  2   force =    -0.00029655   -0.00001738   -0.02096297
     atom    4 type  1   force =     0.00000000    0.00000000    0.00000000
     atom    5 type  2   force =    -0.00007655    0.00094943    0.02035526
     atom    6 type  2   force =    -0.00007565   -0.00025656   -0.02086804
     atom    7 type  1   force =     0.00000000    0.00000000    0.00000000
     atom    8 type  2   force =    -0.00052125    0.00004633    0.02077249
     atom    9 type  2   force =     0.00053650    0.00076845   -0.02094001
     atom   10 type  1   force =     0.00000000    0.00000000    0.00000000
     atom   11 type  2   force =    -0.00003850   -0.00016611    0.02036781
     atom   12 type  2   force =     0.00070188    0.00079939   -0.02091199
     atom   13 type  1   force =     0.00000000    0.00000000    0.00000000
     atom   14 type  2   force =     0.00067853    0.00023697    0.02006108
     atom   15 type  2   force =    -0.00040166    0.00035281   -0.02070519
     atom   16 type  1   force =     0.00000000    0.00000000    0.00000000
     atom   17 type  2   force =     0.00035134    0.00162179    0.02000673
     atom   18 type  2   force =    -0.00009413   -0.00051728   -0.02079964
     atom   19 type  1   force =     0.00000000    0.00000000    0.00000000
     atom   20 type  2   force =    -0.00010927    0.00062304   -0.02116562
     atom   21 type  1   force =     0.00000000    0.00000000    0.00000000
     atom   22 type  2   force =     0.00025553   -0.00083331    0.01951722
     atom   23 type  2   force =    -0.00068256    0.00121651   -0.02088699
     atom   24 type  1   force =     0.00000000    0.00000000    0.00000000
     atom   25 type  2   force =    -0.01646867    0.00897030    0.00378143
     atom   26 type  2   force =     0.00032909    0.00022095   -0.02113821
     atom   27 type  1   force =     0.00000000    0.00000000    0.00000000
     atom   28 type  2   force =    -0.00011598    0.00000147    0.02073139
     atom   29 type  2   force =     0.00016787    0.00063405   -0.02094041
     atom   30 type  1   force =     0.00000000    0.00000000    0.00000000
     atom   31 type  2   force =     0.00035183    0.00033740    0.02075540
     atom   32 type  2   force =    -0.00056940    0.00065772   -0.02087736
     atom   33 type  1   force =     0.00000000    0.00000000    0.00000000
     atom   34 type  2   force =    -0.00059287    0.00010680    0.02089002
     atom   35 type  2   force =     0.00036415    0.00087028   -0.02091890
     atom   36 type  3   force =     0.00000000    0.00000000    0.00000000
     The Hubbard contrib.    to forces
     atom    1 type  1   force =     0.00000000    0.00000000    0.00000000
     atom    2 type  2   force =     0.00000000    0.00000000    0.00000000
     atom    3 type  2   force =     0.00000000    0.00000000    0.00000000
     atom    4 type  1   force =     0.00000000    0.00000000    0.00000000
     atom    5 type  2   force =     0.00000000    0.00000000    0.00000000
     atom    6 type  2   force =     0.00000000    0.00000000    0.00000000
     atom    7 type  1   force =     0.00000000    0.00000000    0.00000000
     atom    8 type  2   force =     0.00000000    0.00000000    0.00000000
     atom    9 type  2   force =     0.00000000    0.00000000    0.00000000
     atom   10 type  1   force =     0.00000000    0.00000000    0.00000000
     atom   11 type  2   force =     0.00000000    0.00000000    0.00000000
     atom   12 type  2   force =     0.00000000    0.00000000    0.00000000
     atom   13 type  1   force =     0.00000000    0.00000000    0.00000000
     atom   14 type  2   force =     0.00000000    0.00000000    0.00000000
     atom   15 type  2   force =     0.00000000    0.00000000    0.00000000
     atom   16 type  1   force =     0.00000000    0.00000000    0.00000000
     atom   17 type  2   force =     0.00000000    0.00000000    0.00000000
     atom   18 type  2   force =     0.00000000    0.00000000    0.00000000
     atom   19 type  1   force =     0.00000000    0.00000000    0.00000000
     atom   20 type  2   force =     0.00000000    0.00000000    0.00000000
     atom   21 type  1   force =     0.00000000    0.00000000    0.00000000
     atom   22 type  2   force =     0.00000000    0.00000000    0.00000000
     atom   23 type  2   force =     0.00000000    0.00000000    0.00000000
     atom   24 type  1   force =     0.00000000    0.00000000    0.00000000
     atom   25 type  2   force =     0.00000000    0.00000000    0.00000000
     atom   26 type  2   force =     0.00000000    0.00000000    0.00000000
     atom   27 type  1   force =     0.00000000    0.00000000    0.00000000
     atom   28 type  2   force =     0.00000000    0.00000000    0.00000000
     atom   29 type  2   force =     0.00000000    0.00000000    0.00000000
     atom   30 type  1   force =     0.00000000    0.00000000    0.00000000
     atom   31 type  2   force =     0.00000000    0.00000000    0.00000000
     atom   32 type  2   force =     0.00000000    0.00000000    0.00000000
     atom   33 type  1   force =     0.00000000    0.00000000    0.00000000
     atom   34 type  2   force =     0.00000000    0.00000000    0.00000000
     atom   35 type  2   force =     0.00000000    0.00000000    0.00000000
     atom   36 type  3   force =     0.00000000    0.00000000    0.00000000
     The SCF correction term to forces
     atom    1 type  1   force =    -0.00000104   -0.00001408    0.00008331
     atom    2 type  2   force =     0.00000799    0.00000016    0.00003737
     atom    3 type  2   force =    -0.00000217   -0.00000161    0.00001487
     atom    4 type  1   force =    -0.00001152   -0.00000033    0.00007660
     atom    5 type  2   force =    -0.00000235   -0.00000536    0.00003693
     atom    6 type  2   force =    -0.00000157   -0.00000244    0.00000787
     atom    7 type  1   force =    -0.00000919   -0.00000436    0.00005602
     atom    8 type  2   force =    -0.00001191    0.00000438    0.00002204
     atom    9 type  2   force =    -0.00000991    0.00000899    0.00001423
     atom   10 type  1   force =     0.00000025    0.00001228    0.00007391
     atom   11 type  2   force =     0.00000286    0.00000140    0.00002558
     atom   12 type  2   force =    -0.00000382   -0.00000441    0.00001213
     atom   13 type  1   force =    -0.00002506    0.00000586    0.00007982
     atom   14 type  2   force =    -0.00000297    0.00000624    0.00003162
     atom   15 type  2   force =    -0.00001073   -0.00000671    0.00000994
     atom   16 type  1   force =    -0.00002215    0.00000804    0.00006535
     atom   17 type  2   force =    -0.00000581   -0.00001526    0.00002882
     atom   18 type  2   force =    -0.00000359   -0.00000273    0.00001579
     atom   19 type  1   force =     0.00001525   -0.00000490    0.00002326
     atom   20 type  2   force =     0.00000376    0.00000464    0.00000615
     atom   21 type  1   force =     0.00000048    0.00001207    0.00004095
     atom   22 type  2   force =    -0.00000137    0.00001406    0.00002920
     atom   23 type  2   force =    -0.00000060    0.00001227   -0.00000364
     atom   24 type  1   force =     0.00001503   -0.00001660    0.00008986
     atom   25 type  2   force =    -0.00000400    0.00000883    0.00003724
     atom   26 type  2   force =     0.00001064   -0.00000434    0.00001763
     atom   27 type  1   force =     0.00003483   -0.00002765    0.00006006
     atom   28 type  2   force =     0.00000850   -0.00001823    0.00004327
     atom   29 type  2   force =     0.00000494   -0.00000259    0.00000614
     atom   30 type  1   force =    -0.00000695    0.00002588    0.00005121
     atom   31 type  2   force =    -0.00000036   -0.00000817    0.00002787
     atom   32 type  2   force =     0.00000330    0.00000060   -0.00000081
     atom   33 type  1   force =    -0.00000669    0.00002450    0.00005491
     atom   34 type  2   force =     0.00000123    0.00001332    0.00002997
     atom   35 type  2   force =     0.00000547   -0.00000013    0.00000950
     atom   36 type  3   force =    -0.00000130    0.00000223    0.00000365

     Total force =     0.005439     Total SCF correction =     0.000270
     Energy error            =      6.8E-05 Ry
     Gradient error          =      1.7E-03 Ry/Bohr

     bfgs converged in  20 scf cycles and  19 bfgs steps
     (criteria: energy <  1.0E-04 Ry, force <  1.0E-02 Ry/Bohr)

     End of BFGS Geometry Optimization

     Final energy             =   -2205.5810492206 Ry

     File ./MoS2-V-O.bfgs deleted, as requested
Begin final coordinates

ATOMIC_POSITIONS (angstrom)
Mo            6.5694436292        1.7581310464        2.7433242248
S             8.1621969908        0.8651239477        4.3332357128
S             8.1309147139        0.8459194733        1.1265276130
Mo            8.1258601120        4.5025015290        2.6926347175
S             6.5394359188        3.6607929333        4.3016397097
S             6.5534246056        3.5648091603        1.1005438195
Mo            6.5351299397        7.1781360025        2.6642171564
S             8.0860977842        6.2990873086        4.3023478499
S             8.1472576216        6.3398356073        1.0993114410
Mo            8.1581852001        9.9500045911        2.7505552165
S             6.5535350427        8.9571341304        4.3125308069
S             6.5971897512        9.0364358646        1.1211640226
Mo            3.4344754526        1.7394259773        2.8126919990
S             5.0415951425        0.8119086777        4.3462173233
S             4.9728135140        0.8362107383        1.1811080890
Mo            5.0045632871        4.5385837526        2.6639706164
S             3.4726437302        3.6834361911        4.3220700842
S             3.4425004695        3.5391964052        1.1383746276
Mo            3.4745698778        7.1718052335        2.6744109130
S             4.9967601829        6.3117833262        1.0493739273
Mo            5.0053537109        9.9023577342        2.7349096948
S             3.4924277449        8.9228988375        4.3392792019
S             3.3920396113        9.0278903038        1.1467784798
Mo            0.2442596860        1.7633620768        2.6926539957
S             1.9638968087        0.7589682604        4.5539992815
S             1.8689010077        0.8332959627        1.2102508624
Mo            1.8600327693        4.4789681035        2.7102909752
S             0.2577434450        3.5905658222        4.2909532421
S             0.2614304571        3.5728001790        1.1041052975
Mo            0.2684397115        7.2157120816        2.7364654181
S             1.8986343961        6.2937587566        4.3005625301
S             1.8524632705        6.3161936717        1.1195240372
Mo            1.8619838752        9.9308603536        2.8078228046
S             0.2540665582        9.0166867085        4.3680664719
S             0.2921185920        9.0508649107        1.1737162208
H             2.8522157343        0.2155007511        5.4947114878
End final coordinates

     Writing all to output data dir ./MoS2-V-O.save/

     General routines

     Parallel routines

   This run was terminated on:   2:23:58   4Nov2023

   JOB DONE.