     Program PWSCF v.7.2 starts on  4Nov2023 at 11:52: 5

     Waiting for input...
     Reading input from standard input
Warning: card &CELL ignored
Warning: card CELL_DYNAMICS = 'BFGS', ignored
Warning: card CELL_DOFREE = '2DXY' ignored
Warning: card / ignored

     Current dimensions of program PWSCF are:
     Max number of different atomic species (ntypx) = 10
     Max number of k-points (npk) =  40000
     Max angular momentum in pseudopotentials (lmaxx) =  4

     IMPORTANT: XC functional enforced from input :
     Exchange-correlation= RVV10
                           (   1   4  13   4  26   0   0)
     Any further DFT definition will be discarded
     Please, verify this is what you really want

     gamma-point specific algorithms are used
     signal trapping enabled: kill the code with -SIGUSR1 to stop cleanly the simulation

     R & G space division:  proc/nbgrp/npool/nimage =      48
     Subspace diagonalization in iterative solution of the eigenvalue problem:
     one sub-group per band group will be used

     Using Slab Decomposition

     bravais-lattice index     =            0
     lattice parameter (alat)  =      17.8707  a.u.
     unit-cell volume          =   17436.2743 (a.u.)^3
     number of atoms/cell      =           36
     number of atomic types    =            3
     number of electrons       =       307.00
     number of Kohn-Sham states=          185
     kinetic-energy cutoff     =      80.0000  Ry
     charge density cutoff     =     400.0000  Ry
     scf convergence threshold =      1.0E-06
     mixing beta               =       0.7000
     number of iterations used =            8  local-TF  mixing
     energy convergence thresh.=      1.0E-04
     force convergence thresh. =      1.0E-02
     Exchange-correlation= RVV10
                           (   1   4  13   4  26   0   0)
     nstep                     =          200

     celldm(1)=  17.870686  celldm(2)=   0.000000  celldm(3)=   0.000000
     celldm(4)=   0.000000  celldm(5)=   0.000000  celldm(6)=   0.000000

     crystal axes: (cart. coord. in units of alat)
               a(1) = (   1.000000   0.000000   0.000000 )
               a(2) = (   0.000000   1.155671   0.000000 )
               a(3) = (   0.000000   0.000000   2.643601 )

     reciprocal axes: (cart. coord. in units 2 pi/alat)
               b(1) = (  1.000000  0.000000  0.000000 )
               b(2) = (  0.000000  0.865298  0.000000 )
               b(3) = (  0.000000  0.000000  0.378272 )

     PseudoPot. # 1 for Mo read from file:
     ../pseudo/Mo_ONCV_PBE-1.0.oncvpsp.upf
     MD5 check sum: 1b5d28e075c9ccadda658a603575cd1f
     Pseudo is Norm-conserving, Zval = 14.0
     Generated using ONCVPSP code by D. R. Hamann
     Using radial grid of 1526 points,  6 beta functions with:
                l(1) =   0
                l(2) =   0
                l(3) =   1
                l(4) =   1
                l(5) =   2
                l(6) =   2

     PseudoPot. # 2 for S  read from file:
     ../pseudo/s_pbe_v1.4.uspp.F.UPF
     MD5 check sum: 88d86576ff6df21479756cfb9bdac1df
     Pseudo is Ultrasoft + core correction, Zval =  6.0
     Generated by new atomic code, or converted to UPF format
     Using radial grid of  907 points,  6 beta functions with:
                l(1) =   0
                l(2) =   0
                l(3) =   1
                l(4) =   1
                l(5) =   2
                l(6) =   2
     Q(r) pseudized with  8 coefficients,  rinner =    1.300   1.300   1.300
                                                       1.300   1.300

     PseudoPot. # 3 for H  read from file:
     ../pseudo/H_ONCV_PBE-1.0.oncvpsp.upf
     MD5 check sum: 1790becc920ee074925cf490c71280fe
     Pseudo is Norm-conserving, Zval =  1.0
     Generated using ONCVPSP code by D. R. Hamann
     Using radial grid of 1166 points,  2 beta functions with:
                l(1) =   0
                l(2) =   0

     atomic species   valence    mass     pseudopotential
        Mo            14.00    95.94000     Mo( 1.00)
        S              6.00    32.06500     S ( 1.00)
        H              1.00     1.00794     H ( 1.00)

     No symmetry found

   Cartesian axes

     site n.     atom                  positions (alat units)
         1           Mo  tau(   1) = (   0.6952221   0.1890506   0.2985846  )
         2           S   tau(   2) = (   0.8646417   0.0856217   0.4689279  )
         3           S   tau(   3) = (   0.8663890   0.0857843   0.1351291  )
         4           Mo  tau(   4) = (   0.8560186   0.4753274   0.2873942  )
         5           S   tau(   5) = (   0.6873294   0.3936244   0.4596353  )
         6           S   tau(   6) = (   0.6929804   0.3713468   0.1185692  )
         7           Mo  tau(   7) = (   0.6862796   0.7633098   0.2825370  )
         8           S   tau(   8) = (   0.8545980   0.6708292   0.4486168  )
         9           S   tau(   9) = (   0.8545123   0.6666874   0.1146125  )
        10           Mo  tau(  10) = (   0.8629403   1.0471007   0.3006803  )
        11           S   tau(  11) = (   0.6868280   0.9456650   0.4634891  )
        12           S   tau(  12) = (   0.6998113   0.9568511   0.1205389  )
        13           Mo  tau(  13) = (   0.3618216   0.1847309   0.2935964  )
        14           S   tau(  14) = (   0.5260962   0.0863870   0.4600448  )
        15           S   tau(  15) = (   0.5348379   0.0894875   0.1297123  )
        16           Mo  tau(  16) = (   0.5265817   0.4772436   0.2784130  )
        17           S   tau(  17) = (   0.3624753   0.3882513   0.4525556  )
        18           S   tau(  18) = (   0.3635411   0.3752055   0.1119148  )
        19           Mo  tau(  19) = (   0.3652268   0.7630864   0.2781795  )
        20           S   tau(  20) = (   0.5269494   0.6690381   0.1096838  )
        21           Mo  tau(  21) = (   0.5300192   1.0470394   0.2900995  )
        22           S   tau(  22) = (   0.3670346   0.9457522   0.4574073  )
        23           S   tau(  23) = (   0.3604225   0.9585725   0.1159032  )
        24           Mo  tau(  24) = (   0.0313099   0.1847895   0.3013130  )
        25           S   tau(  25) = (   0.1956761   0.0838230   0.4650863  )
        26           S   tau(  26) = (   0.1967693   0.0903508   0.1278874  )
        27           Mo  tau(  27) = (   0.1967578   0.4753919   0.2813011  )
        28           S   tau(  28) = (   0.0287851   0.3864324   0.4586755  )
        29           S   tau(  29) = (   0.0244514   0.3729871   0.1239344  )
        30           Mo  tau(  30) = (   0.0286728   0.7631204   0.2856894  )
        31           S   tau(  31) = (   0.2011512   0.6675435   0.4465001  )
        32           S   tau(  32) = (   0.1969214   0.6672839   0.1104564  )
        33           Mo  tau(  33) = (   0.1950294   1.0511147   0.2932237  )
        34           S   tau(  34) = (   0.0312912   0.9612169   0.4667423  )
        35           S   tau(  35) = (   0.0292670   0.9563028   0.1216485  )
        36           H   tau(  36) = (   1.0000000   0.0000000   0.5407634  )

     number of k points=     1  Gaussian smearing, width (Ry)=  0.0100
                       cart. coord. in units 2pi/alat
        k(    1) = (   0.0000000   0.0000000   0.0000000), wk =   2.0000000

     Initial potential from superposition of free atoms

     starting charge     306.9873, renormalised to     307.0000

     negative rho (up, down):  1.419E-04 0.000E+00

Carrying out rVV10 run using the following parameters:
Nqs =      20    Nr_points =    1024   r_max =   100.000
b_value =  6.30000    beta =  0.00901
     q_mesh =  0.00010000  0.00030000  0.00058939  0.00100810
               0.00161396  0.00249058  0.00375900  0.00559430
               0.00824984  0.01209221  0.01765183  0.02569619
               0.03733578  0.05417739  0.07854596  0.11380545
               0.16482331  0.23864234  0.34545298  0.50000000

Gradients computed in Reciprocal space

     Starting wfcs are  213 randomized atomic wfcs

     Self-consistent Calculation

     iteration #  1     ecut=    80.00 Ry     beta= 0.70
     Davidson diagonalization with overlap
     ethr =  1.00E-02,  avg # of iterations =  2.0

     Threshold (ethr) on eigenvalues was too large:
     Diagonalizing with lowered threshold

     Davidson diagonalization with overlap
     ethr =  3.48E-04,  avg # of iterations =  4.0

[...]

     total energy              =   -2205.60208390 Ry
     estimated scf accuracy    <       1.36037042 Ry

[...]

     iteration #  4     ecut=    80.00 Ry     beta= 0.70
     Davidson diagonalization with overlap
     c_bands:  1 eigenvalues not converged
     ethr =  1.77E-05,  avg # of iterations = 20.0

[...]

     iteration # 13     ecut=    80.00 Ry     beta= 0.70
     Davidson diagonalization with overlap
     c_bands:  2 eigenvalues not converged
     ethr =  5.44E-09,  avg # of iterations = 20.0

[...]

     End of self-consistent calculation

          k = 0.0000 0.0000 0.0000 (105382 PWs)   bands (ev):

   -62.8866 -62.8635 -62.8523 -62.8278 -62.8089 -62.7982 -62.7929 -62.7836
   -62.7766 -62.7556 -62.7511 -62.7352 -37.2220 -37.1544 -37.1282 -37.1254
   -37.1190 -37.0904 -37.0758 -37.0648 -37.0539 -37.0514 -37.0400 -37.0291
   -37.0220 -37.0168 -37.0038 -36.9926 -36.9873 -36.9832 -36.9730 -36.9652
   -36.9538 -36.9424 -36.9252 -36.9235 -36.9145 -36.9109 -36.9021 -36.8905
   -36.8858 -36.8645 -36.8470 -36.8344 -36.8122 -36.7845 -36.7237 -36.6998
   -16.0670 -15.3445 -15.1700 -15.0499 -14.9772 -14.8129 -14.6148 -14.5214
   -14.4779 -14.4367 -14.4053 -14.3729 -14.3365 -14.2773 -14.1692 -14.1473
   -14.1199 -14.0905 -14.0184 -13.9586 -13.8405 -13.8228 -13.7939  -8.4652
    -7.6058  -7.4706  -7.2777  -7.2557  -7.2087  -7.1826  -7.1291  -6.8938
    -6.8387  -6.8012  -6.7586  -6.7338  -6.5624  -6.4953  -6.4620  -6.4407
    -6.3712  -6.2492  -6.0169  -5.9981  -5.9191  -5.8531  -5.8296  -5.8036
    -5.7752  -5.7420  -5.6610  -5.6473  -5.6047  -5.5661  -5.5273  -5.4598
    -5.4214  -5.3637  -5.1830  -5.1748  -5.0614  -5.0593  -4.9781  -4.9441
    -4.9303  -4.8205  -4.6451  -4.5054  -4.3623  -4.3208  -4.2725  -4.2550
    -4.2187  -4.0709  -4.0255  -3.9607  -3.8143  -3.7555  -3.7320  -3.6966
    -3.6611  -3.5771  -3.5472  -3.5302  -3.5025  -3.4799  -3.4422  -3.3767
    -3.3689  -3.2065  -3.1287  -2.9029  -2.8809  -2.7915  -2.7679  -2.7291
    -2.7101  -2.6773  -2.6442  -2.6183  -2.5601  -2.2782  -2.0310  -1.9848
    -1.9700  -1.0353  -0.7545  -0.7017  -0.1673  -0.1290  -0.0495  -0.0319
     0.1209   0.1439   0.1975   0.2377   0.2566   0.2811   0.3820   0.4171
     0.4670   0.5380   0.5513   0.5793   0.6251   0.6840   0.7172   0.7509
     0.7814   0.7959   0.8717   0.8923   0.9483   1.0060   1.0471   1.3614
     1.3949

     the Fermi energy is    -1.0357 ev

!    total energy              =   -2205.52774984 Ry
     estimated scf accuracy    <       0.00000050 Ry
     smearing contrib. (-TS)   =      -0.00573407 Ry
     internal energy E=F+TS    =   -2205.52201577 Ry

     The total energy is F=E-TS. E is the sum of the following terms:
     one-electron contribution =  -18055.62440976 Ry
     hartree contribution      =    9014.63846329 Ry
[...]
     atom    3 type  2   force =     0.21217493   -0.14771146  -36.77857104
     atom    4 type  1   force =    -0.09548460    0.61742354    0.50326664
     atom    5 type  2   force =    -0.84037379    1.11487044   38.12597146
     atom    6 type  2   force =     0.41114313   -0.07788550  -38.47216187
     atom    7 type  1   force =    -2.48353904   -2.43319286    2.27747115
     atom    8 type  2   force =    -1.28797477    0.00913522   38.00163792
     atom    9 type  2   force =     0.35812648   -0.04835948  -37.67352986
     atom   10 type  1   force =    -0.97105522   -0.04270850    4.41706183
     atom   11 type  2   force =    -0.71450335   -1.57415256   38.57072366
     atom   12 type  2   force =     0.36721932    0.37051017  -37.88231437
     atom   13 type  1   force =     0.07822959    0.79657765    1.75612550
     atom   14 type  2   force =     0.20496561    0.04295580   38.23860420
     atom   15 type  2   force =    -0.07317612   -0.26559961  -38.12487216
     atom   16 type  1   force =     0.01317959    3.80834191    0.90952176
     atom   17 type  2   force =     0.96490431    1.25397684   38.19473432
     atom   18 type  2   force =    -0.35863750   -0.23842639  -38.08400092
     atom   19 type  1   force =     2.49530320   -2.10843311    2.88832436
     atom   20 type  2   force =     0.00463515    0.01072643  -38.68894312
     atom   21 type  1   force =     0.01495424   -0.33755995    0.23222909
     atom   22 type  2   force =     0.56774604   -1.50724940   38.42788542
     atom   23 type  2   force =    -0.25669988    0.23697366  -37.85451914
     atom   24 type  1   force =    -0.73337236    0.84496281    4.09070381
     atom   25 type  2   force =     0.79154892    0.19071689   38.70418697
     atom   26 type  2   force =    -0.20812429   -0.00976148  -37.44347021
     atom   27 type  1   force =     0.08458918    0.64989496    0.85360929
     atom   28 type  2   force =    -0.10793998    0.79643831   38.21868277
     atom   29 type  2   force =    -0.03788494   -0.13943672  -37.33420216
     atom   30 type  1   force =    -0.01987255   -1.03145095    2.03175056
     atom   31 type  2   force =     1.26316676    0.09791953   38.17768011
     atom   32 type  2   force =    -0.31420613   -0.00413088  -37.68873087
     atom   33 type  1   force =     0.70484723   -0.76985386    2.80378702
     atom   34 type  2   force =     0.23629442   -1.03657798   38.78657624
     atom   35 type  2   force =    -0.05796431    0.13807221  -37.38207043
     atom   36 type  3   force =     0.65828616   -0.37448032    8.35795415
     The local contribution  to forces
     atom    1 type  1   force =    -1.12366136   -0.02628649   -0.31886157
     atom    2 type  2   force =     1.76787290   -1.03385455  -38.51389602
     atom    3 type  2   force =    -0.20743258    0.15767076   36.52604692
     atom    4 type  1   force =     0.09353137   -0.62564807   -0.50655770
     atom    5 type  2   force =     0.83470919   -1.10393501  -37.90229535
     atom    6 type  2   force =    -0.40716538    0.08527021   38.22835862
     atom    7 type  1   force =     2.50559958    2.44036903   -2.25818990
     atom    8 type  2   force =     1.28169740   -0.00902519  -37.75890252
     atom    9 type  2   force =    -0.35175411    0.06376214   37.42625571
     atom   10 type  1   force =     0.97233388    0.03669484   -4.41098256
     atom   11 type  2   force =     0.70404387    1.56872874  -38.33686638
     atom   12 type  2   force =    -0.35616113   -0.35739025   37.64070830
     atom   13 type  1   force =    -0.08237147   -0.81813608   -1.75145777
     atom   14 type  2   force =    -0.19165706   -0.02951590  -38.00695342
     atom   15 type  2   force =     0.07121183    0.26492163   37.88110028
     atom   16 type  1   force =    -0.01410656   -3.84282179   -0.87714951
     atom   17 type  2   force =    -0.95791388   -1.23125299  -37.96238128
     atom   18 type  2   force =     0.35677899    0.24475382   37.83906231
     atom   19 type  1   force =    -2.51736946    2.11380933   -2.86282496
     atom   20 type  2   force =    -0.00514182    0.00289125   38.44787209
     atom   21 type  1   force =    -0.01413520    0.31611002   -0.23731057
     atom   22 type  2   force =    -0.56365253    1.50582777  -38.18913489
     atom   23 type  2   force =     0.24815285   -0.22764258   37.60815003
     atom   24 type  1   force =     0.73852249   -0.85987917   -4.08526337
     atom   25 type  2   force =    -0.78964691   -0.17889147  -38.47567503
     atom   26 type  2   force =     0.20077991    0.01700691   37.19635603
     atom   27 type  1   force =    -0.08493835   -0.65983545   -0.85841678
     atom   28 type  2   force =     0.10703303   -0.77460569  -37.97366604
     atom   29 type  2   force =     0.03760563    0.14557429   37.08828355
     atom   30 type  1   force =     0.01659066    1.01794583   -2.03329255
     atom   31 type  2   force =    -1.25514290   -0.09850473  -37.93427597
     atom   32 type  2   force =     0.30847280    0.01783560   37.44037167
     atom   33 type  1   force =    -0.70386707    0.76730004   -2.80659041
     atom   34 type  2   force =    -0.23785888    1.03811258  -38.54837995
     atom   35 type  2   force =     0.05799898   -0.12382044   37.13513483
     atom   36 type  3   force =    -0.62525988    0.35729384   -8.31884575
     The core correction contribution to forces
     atom    1 type  1   force =     0.00000000    0.00000000    0.00000000
     atom    2 type  2   force =    -0.01576586    0.00867086    0.00240475
     atom    3 type  2   force =     0.00051344    0.00017280   -0.02120531
     atom    4 type  1   force =     0.00000000    0.00000000    0.00000000
     atom    5 type  2   force =    -0.00053483    0.00039931    0.01990861
     atom    6 type  2   force =     0.00038890    0.00018030   -0.02089393
     atom    7 type  1   force =     0.00000000    0.00000000    0.00000000
     atom    8 type  2   force =    -0.00042801    0.00026902    0.02064231
     atom    9 type  2   force =     0.00061692    0.00084879   -0.02082704
     atom   10 type  1   force =     0.00000000    0.00000000    0.00000000
     atom   11 type  2   force =    -0.00061940   -0.00059264    0.02027031
     atom   12 type  2   force =     0.00101357    0.00111025   -0.02078602
     atom   13 type  1   force =     0.00000000    0.00000000    0.00000000
     atom   14 type  2   force =     0.00080846    0.00031700    0.02024644
     atom   15 type  2   force =    -0.00028326   -0.00020347   -0.02082550
     atom   16 type  1   force =     0.00000000    0.00000000    0.00000000
     atom   17 type  2   force =     0.00062699    0.00105952    0.02027055
     atom   18 type  2   force =    -0.00036901   -0.00011553   -0.02081484
     atom   19 type  1   force =     0.00000000    0.00000000    0.00000000
     atom   20 type  2   force =    -0.00002474    0.00062623   -0.02116295
     atom   21 type  1   force =     0.00000000    0.00000000    0.00000000
     atom   22 type  2   force =     0.00016775   -0.00020942    0.02047844
     atom   23 type  2   force =    -0.00076316    0.00078475   -0.02091189
     atom   24 type  1   force =     0.00000000    0.00000000    0.00000000
     atom   25 type  2   force =     0.00062108    0.00052577    0.01985349
     atom   26 type  2   force =    -0.00058591    0.00024472   -0.02094477
     atom   27 type  1   force =     0.00000000    0.00000000    0.00000000
     atom   28 type  2   force =    -0.00010339    0.00159502    0.02065660
     atom   29 type  2   force =     0.00001685    0.00002116   -0.02075477
     atom   30 type  1   force =     0.00000000    0.00000000    0.00000000
     atom   31 type  2   force =     0.00045461    0.00028528    0.02073734
     atom   32 type  2   force =    -0.00054260    0.00077472   -0.02090889
     atom   33 type  1   force =     0.00000000    0.00000000    0.00000000
     atom   34 type  2   force =     0.00021053   -0.00042501    0.02028516
     atom   35 type  2   force =    -0.00005076    0.00101860   -0.02100407
     atom   36 type  3   force =     0.00000000    0.00000000    0.00000000
     The Hubbard contrib.    to forces
     atom    1 type  1   force =     0.00000000    0.00000000    0.00000000
     atom    2 type  2   force =     0.00000000    0.00000000    0.00000000
     atom    3 type  2   force =     0.00000000    0.00000000    0.00000000
     atom    4 type  1   force =     0.00000000    0.00000000    0.00000000
     atom    5 type  2   force =     0.00000000    0.00000000    0.00000000
     atom    6 type  2   force =     0.00000000    0.00000000    0.00000000
     atom    7 type  1   force =     0.00000000    0.00000000    0.00000000
     atom    8 type  2   force =     0.00000000    0.00000000    0.00000000
     atom    9 type  2   force =     0.00000000    0.00000000    0.00000000
     atom   10 type  1   force =     0.00000000    0.00000000    0.00000000
     atom   11 type  2   force =     0.00000000    0.00000000    0.00000000
     atom   12 type  2   force =     0.00000000    0.00000000    0.00000000
     atom   13 type  1   force =     0.00000000    0.00000000    0.00000000
     atom   14 type  2   force =     0.00000000    0.00000000    0.00000000
     atom   15 type  2   force =     0.00000000    0.00000000    0.00000000
     atom   16 type  1   force =     0.00000000    0.00000000    0.00000000
     atom   17 type  2   force =     0.00000000    0.00000000    0.00000000
     atom   18 type  2   force =     0.00000000    0.00000000    0.00000000
     atom   19 type  1   force =     0.00000000    0.00000000    0.00000000
     atom   20 type  2   force =     0.00000000    0.00000000    0.00000000
     atom   21 type  1   force =     0.00000000    0.00000000    0.00000000
     atom   22 type  2   force =     0.00000000    0.00000000    0.00000000
     atom   23 type  2   force =     0.00000000    0.00000000    0.00000000
     atom   24 type  1   force =     0.00000000    0.00000000    0.00000000
     atom   25 type  2   force =     0.00000000    0.00000000    0.00000000
     atom   26 type  2   force =     0.00000000    0.00000000    0.00000000
     atom   27 type  1   force =     0.00000000    0.00000000    0.00000000
     atom   28 type  2   force =     0.00000000    0.00000000    0.00000000
     atom   29 type  2   force =     0.00000000    0.00000000    0.00000000
     atom   30 type  1   force =     0.00000000    0.00000000    0.00000000
     atom   31 type  2   force =     0.00000000    0.00000000    0.00000000
     atom   32 type  2   force =     0.00000000    0.00000000    0.00000000
     atom   33 type  1   force =     0.00000000    0.00000000    0.00000000
     atom   34 type  2   force =     0.00000000    0.00000000    0.00000000
     atom   35 type  2   force =     0.00000000    0.00000000    0.00000000
     atom   36 type  3   force =     0.00000000    0.00000000    0.00000000
     The SCF correction term to forces
     atom    1 type  1   force =    -0.00001240   -0.00000717    0.00004644
     atom    2 type  2   force =    -0.00000426    0.00000264    0.00005511
     atom    3 type  2   force =     0.00000031   -0.00000344    0.00000933
     atom    4 type  1   force =     0.00000658   -0.00001287    0.00005409
     atom    5 type  2   force =     0.00000001   -0.00000893    0.00003457
     atom    6 type  2   force =     0.00000244   -0.00000804    0.00001459
     atom    7 type  1   force =    -0.00000350    0.00001448    0.00004041
     atom    8 type  2   force =    -0.00000179   -0.00000370    0.00002469
     atom    9 type  2   force =     0.00000106    0.00000225    0.00001164
     atom   10 type  1   force =    -0.00000921    0.00000299    0.00003407
     atom   11 type  2   force =    -0.00000064    0.00001018    0.00002615
     atom   12 type  2   force =     0.00000042    0.00000649    0.00001091
     atom   13 type  1   force =     0.00000759   -0.00000408    0.00005484
     atom   14 type  2   force =     0.00000314    0.00000397    0.00003316
     atom   15 type  2   force =    -0.00000071   -0.00000024    0.00001461
     atom   16 type  1   force =    -0.00000217   -0.00001759    0.00006437
     atom   17 type  2   force =     0.00000327   -0.00000771    0.00002923
     atom   18 type  2   force =     0.00000134   -0.00000890    0.00001745
     atom   19 type  1   force =     0.00001767    0.00000971    0.00004519
     atom   20 type  2   force =     0.00000379    0.00000719    0.00001556
     atom   21 type  1   force =     0.00000497    0.00000718    0.00004554
     atom   22 type  2   force =     0.00000221    0.00000739    0.00002403
     atom   23 type  2   force =     0.00000325    0.00000722    0.00001199
     atom   24 type  1   force =     0.00000895    0.00000363    0.00004412
     atom   25 type  2   force =     0.00000135    0.00000675    0.00002787
     atom   26 type  2   force =    -0.00000260   -0.00000171    0.00001231
     atom   27 type  1   force =    -0.00000178   -0.00002337    0.00005824
     atom   28 type  2   force =    -0.00000421   -0.00001062    0.00003343
     atom   29 type  2   force =    -0.00000242   -0.00000732    0.00001407
     atom   30 type  1   force =    -0.00000748    0.00000687    0.00003325
     atom   31 type  2   force =    -0.00000077   -0.00000226    0.00002644
     atom   32 type  2   force =    -0.00000453    0.00000281    0.00001197
     atom   33 type  1   force =     0.00000990    0.00001247    0.00004213
     atom   34 type  2   force =    -0.00000434    0.00000823    0.00002343
     atom   35 type  2   force =    -0.00000465    0.00000754    0.00000687
     atom   36 type  3   force =    -0.00000284    0.00000288    0.00000535

     Total force =     0.005829     Total SCF correction =     0.000211
     Energy error            =      9.0E-05 Ry
     Gradient error          =      1.4E-03 Ry/Bohr

     bfgs converged in  21 scf cycles and  20 bfgs steps
     (criteria: energy <  1.0E-04 Ry, force <  1.0E-02 Ry/Bohr)

     End of BFGS Geometry Optimization

     Final energy             =   -2205.5826630412 Ry

     File ./MoS2-V-O.bfgs deleted, as requested
Begin final coordinates

ATOMIC_POSITIONS (angstrom)
Mo            6.5444336232        1.7783128191        2.6926356153
S             8.2253721665        0.7760664720        4.5136792715
S             8.1630337432        0.8278509616        1.2082640714
Mo            8.1199126005        4.4727116002        2.7035684389
S             6.5110477907        3.6582105863        4.2801161133
S             6.5503408033        3.5670312614        1.0734882735
Mo            6.5193292221        7.1981981591        2.6545893518
S             8.0821153278        6.2931777374        4.2888086388
S             8.1531612371        6.3194549124        1.1135907285
Mo            8.1569913766        9.9212979489        2.8019070805
S             6.5121821854        8.9418508927        4.3265203184
S             6.6208609810        9.0370942631        1.1227996307
Mo            3.4408955288        1.7461462242        2.7377371265
S             5.0257151111        0.8264857662        4.3056482168
S             4.9969448756        0.8341799735        1.1161699507
Mo            4.9938998752        4.5329231050        2.6263994031
S             3.4763364655        3.6555582903        4.2878552782
S             3.4211794236        3.5575081127        1.0970076093
Mo            3.4927843472        7.1850745398        2.6643998458
S             5.0032789437        6.3237233578        1.0262830719
Mo            5.0176503663        9.9189734189        2.7071396065
S             3.4984290982        8.9579802685        4.3149468134
S             3.4052679323        9.0272765571        1.1198343027
Mo            0.2816976086        1.7288147181        2.8022376537
S             1.8974063628        0.8424016179        4.3630797051
S             1.8346682981        0.8305813829        1.1763908407
Mo            1.8664997795        4.4828384419        2.7116933692
S             0.2677133274        3.6161549628        4.3241432224
S             0.2719386445        3.5316724413        1.1592370359
Mo            0.2771586077        7.2056846185        2.7349954340
S             1.9277700314        6.2970015227        4.2978747163
S             1.8545198098        6.3193902789        1.1166031123
Mo            1.8645111038        9.9297681843        2.7679052105
S             0.2961847633        8.9945878734        4.3683956810
S             0.2708214732        9.0485431542        1.1765039164
H             9.0870541771        0.2964199853        5.5082989216
End final coordinates

     Writing all to output data dir ./MoS2-V-O.save/

     General routines

     Parallel routines

   This run was terminated on:  12:27: 2   4Nov2023

   JOB DONE.