     Program PWSCF v.7.2 starts on  3Nov2023 at 21: 3:20

     Waiting for input...
     Reading input from standard input
Warning: card &CELL ignored
Warning: card CELL_DYNAMICS = 'BFGS', ignored
Warning: card CELL_DOFREE = '2DXY' ignored
Warning: card / ignored

     Current dimensions of program PWSCF are:
     Max number of different atomic species (ntypx) = 10
     Max number of k-points (npk) =  40000
     Max angular momentum in pseudopotentials (lmaxx) =  4

     IMPORTANT: XC functional enforced from input :
     Exchange-correlation= RVV10
                           (   1   4  13   4  26   0   0)
     Any further DFT definition will be discarded
     Please, verify this is what you really want

     gamma-point specific algorithms are used
     signal trapping enabled: kill the code with -SIGUSR1 to stop cleanly the simulation

     R & G space division:  proc/nbgrp/npool/nimage =      48
     Subspace diagonalization in iterative solution of the eigenvalue problem:
     one sub-group per band group will be used

     Using Slab Decomposition

     bravais-lattice index     =            0
     lattice parameter (alat)  =      17.8707  a.u.
     unit-cell volume          =   17436.2743 (a.u.)^3
     number of atoms/cell      =           36
     number of atomic types    =            3
     number of electrons       =       307.00
     number of Kohn-Sham states=          185
     kinetic-energy cutoff     =      80.0000  Ry
     charge density cutoff     =     400.0000  Ry
     scf convergence threshold =      1.0E-06
     mixing beta               =       0.7000
     number of iterations used =            8  local-TF  mixing
     energy convergence thresh.=      1.0E-04
     force convergence thresh. =      1.0E-02
     Exchange-correlation= RVV10
                           (   1   4  13   4  26   0   0)
     nstep                     =          200

     celldm(1)=  17.870686  celldm(2)=   0.000000  celldm(3)=   0.000000
     celldm(4)=   0.000000  celldm(5)=   0.000000  celldm(6)=   0.000000

     crystal axes: (cart. coord. in units of alat)
               a(1) = (   1.000000   0.000000   0.000000 )
               a(2) = (   0.000000   1.155671   0.000000 )
               a(3) = (   0.000000   0.000000   2.643601 )

     reciprocal axes: (cart. coord. in units 2 pi/alat)
               b(1) = (  1.000000  0.000000  0.000000 )
               b(2) = (  0.000000  0.865298  0.000000 )
               b(3) = (  0.000000  0.000000  0.378272 )

     PseudoPot. # 1 for Mo read from file:
     ../pseudo/Mo_ONCV_PBE-1.0.oncvpsp.upf
     MD5 check sum: 1b5d28e075c9ccadda658a603575cd1f
     Pseudo is Norm-conserving, Zval = 14.0
     Generated using ONCVPSP code by D. R. Hamann
     Using radial grid of 1526 points,  6 beta functions with:
                l(1) =   0
                l(2) =   0
                l(3) =   1
                l(4) =   1
                l(5) =   2
                l(6) =   2

     PseudoPot. # 2 for S  read from file:
     ../pseudo/s_pbe_v1.4.uspp.F.UPF
     MD5 check sum: 88d86576ff6df21479756cfb9bdac1df
     Pseudo is Ultrasoft + core correction, Zval =  6.0
     Generated by new atomic code, or converted to UPF format
     Using radial grid of  907 points,  6 beta functions with:
                l(1) =   0
                l(2) =   0
                l(3) =   1
                l(4) =   1
                l(5) =   2
                l(6) =   2
     Q(r) pseudized with  8 coefficients,  rinner =    1.300   1.300   1.300
                                                       1.300   1.300

     PseudoPot. # 3 for H  read from file:
     ../pseudo/H_ONCV_PBE-1.0.oncvpsp.upf
     MD5 check sum: 1790becc920ee074925cf490c71280fe
     Pseudo is Norm-conserving, Zval =  1.0
     Generated using ONCVPSP code by D. R. Hamann
     Using radial grid of 1166 points,  2 beta functions with:
                l(1) =   0
                l(2) =   0

     atomic species   valence    mass     pseudopotential
        Mo            14.00    95.94000     Mo( 1.00)
        S              6.00    32.06500     S ( 1.00)
        H              1.00     1.00794     H ( 1.00)

     No symmetry found

   Cartesian axes

     site n.     atom                  positions (alat units)
         1           Mo  tau(   1) = (   0.6952221   0.1890506   0.2985846  )
         2           S   tau(   2) = (   0.8646417   0.0856217   0.4689279  )
         3           S   tau(   3) = (   0.8663890   0.0857843   0.1351291  )
         4           Mo  tau(   4) = (   0.8560186   0.4753274   0.2873942  )
         5           S   tau(   5) = (   0.6873294   0.3936244   0.4596353  )
         6           S   tau(   6) = (   0.6929804   0.3713468   0.1185692  )
         7           Mo  tau(   7) = (   0.6862796   0.7633098   0.2825370  )
         8           S   tau(   8) = (   0.8545980   0.6708292   0.4486168  )
         9           S   tau(   9) = (   0.8545123   0.6666874   0.1146125  )
        10           Mo  tau(  10) = (   0.8629403   1.0471007   0.3006803  )
        11           S   tau(  11) = (   0.6868280   0.9456650   0.4634891  )
        12           S   tau(  12) = (   0.6998113   0.9568511   0.1205389  )
        13           Mo  tau(  13) = (   0.3618216   0.1847309   0.2935964  )
        14           S   tau(  14) = (   0.5260962   0.0863870   0.4600448  )
        15           S   tau(  15) = (   0.5348379   0.0894875   0.1297123  )
        16           Mo  tau(  16) = (   0.5265817   0.4772436   0.2784130  )
        17           S   tau(  17) = (   0.3624753   0.3882513   0.4525556  )
        18           S   tau(  18) = (   0.3635411   0.3752055   0.1119148  )
        19           Mo  tau(  19) = (   0.3652268   0.7630864   0.2781795  )
        20           S   tau(  20) = (   0.5269494   0.6690381   0.1096838  )
        21           Mo  tau(  21) = (   0.5300192   1.0470394   0.2900995  )
        22           S   tau(  22) = (   0.3670346   0.9457522   0.4574073  )
        23           S   tau(  23) = (   0.3604225   0.9585725   0.1159032  )
        24           Mo  tau(  24) = (   0.0313099   0.1847895   0.3013130  )
        25           S   tau(  25) = (   0.1956761   0.0838230   0.4650863  )
        26           S   tau(  26) = (   0.1967693   0.0903508   0.1278874  )
        27           Mo  tau(  27) = (   0.1967578   0.4753919   0.2813011  )
        28           S   tau(  28) = (   0.0287851   0.3864324   0.4586755  )
        29           S   tau(  29) = (   0.0244514   0.3729871   0.1239344  )
        30           Mo  tau(  30) = (   0.0286728   0.7631204   0.2856894  )
        31           S   tau(  31) = (   0.2011512   0.6675435   0.4465001  )
        32           S   tau(  32) = (   0.1969214   0.6672839   0.1104564  )
        33           Mo  tau(  33) = (   0.1950294   1.0511147   0.2932237  )
        34           S   tau(  34) = (   0.0312912   0.9612169   0.4667423  )
        35           S   tau(  35) = (   0.0292670   0.9563028   0.1216485  )
        36           H   tau(  36) = (   0.3333333   0.1284079   0.5650415  )

     number of k points=     1  Gaussian smearing, width (Ry)=  0.0100
                       cart. coord. in units 2pi/alat
        k(    1) = (   0.0000000   0.0000000   0.0000000), wk =   2.0000000

     Initial potential from superposition of free atoms

     starting charge     306.9873, renormalised to     307.0000

     negative rho (up, down):  1.410E-04 0.000E+00

Carrying out rVV10 run using the following parameters:
Nqs =      20    Nr_points =    1024   r_max =   100.000
b_value =  6.30000    beta =  0.00901
     q_mesh =  0.00010000  0.00030000  0.00058939  0.00100810
               0.00161396  0.00249058  0.00375900  0.00559430
               0.00824984  0.01209221  0.01765183  0.02569619
               0.03733578  0.05417739  0.07854596  0.11380545
               0.16482331  0.23864234  0.34545298  0.50000000

Gradients computed in Reciprocal space

     Starting wfcs are  213 randomized atomic wfcs

     Self-consistent Calculation

     iteration #  1     ecut=    80.00 Ry     beta= 0.70
     Davidson diagonalization with overlap
     ethr =  1.00E-02,  avg # of iterations =  2.0

     Threshold (ethr) on eigenvalues was too large:
     Diagonalizing with lowered threshold

     Davidson diagonalization with overlap
     ethr =  3.94E-04,  avg # of iterations =  4.0

[...]

     total energy              =   -2205.58039394 Ry
     estimated scf accuracy    <       1.50129035 Ry

[...]

     iteration #  8     ecut=    80.00 Ry     beta= 0.70
     Davidson diagonalization with overlap
     c_bands:  1 eigenvalues not converged
     ethr =  2.16E-06,  avg # of iterations = 20.0

[...]

     End of self-consistent calculation

          k = 0.0000 0.0000 0.0000 (105382 PWs)   bands (ev):

   -62.8783 -62.8693 -62.8506 -62.8436 -62.8361 -62.8323 -62.8234 -62.7723
   -62.7537 -62.7224 -62.7051 -62.6859 -37.2113 -37.1450 -37.1388 -37.1316
   -37.1198 -37.1011 -37.0859 -37.0732 -37.0611 -37.0578 -37.0394 -37.0347
   -37.0324 -37.0244 -37.0184 -37.0091 -36.9972 -36.9902 -36.9883 -36.9476
   -36.9303 -36.9255 -36.9091 -36.8962 -36.8877 -36.8764 -36.8731 -36.8680
   -36.8573 -36.8530 -36.8509 -36.8304 -36.8242 -36.7901 -36.6890 -36.6612
   -16.0744 -15.3956 -15.1644 -15.0502 -14.9185 -14.8374 -14.6546 -14.4895
   -14.4353 -14.4077 -14.3873 -14.3534 -14.3353 -14.2645 -14.1588 -14.1113
   -14.1060 -14.0951 -14.0250 -13.9215 -13.8191 -13.7936 -13.7759  -8.4001
    -7.6590  -7.4464  -7.2865  -7.2611  -7.2253  -7.1933  -7.1679  -6.9597
    -6.8299  -6.7723  -6.7485  -6.6990  -6.6255  -6.4833  -6.4452  -6.4179
    -6.3382  -6.2474  -6.0886  -5.9498  -5.9340  -5.8999  -5.8052  -5.7825
    -5.7716  -5.7058  -5.6801  -5.6332  -5.5969  -5.5313  -5.5241  -5.4564
    -5.4162  -5.3558  -5.2190  -5.1311  -5.0823  -5.0144  -4.9776  -4.9563
    -4.9025  -4.8093  -4.6606  -4.5114  -4.4184  -4.3321  -4.2708  -4.2166
    -4.1597  -4.0752  -3.9955  -3.8950  -3.8040  -3.7852  -3.7525  -3.6887
    -3.6502  -3.5590  -3.5349  -3.5269  -3.4700  -3.4385  -3.4284  -3.3957
    -3.3606  -3.1939  -3.1235  -2.9241  -2.8690  -2.7984  -2.7597  -2.7305
    -2.7057  -2.6576  -2.6329  -2.6031  -2.5393  -2.2663  -2.0271  -1.9749
    -1.8872  -0.8845  -0.7595  -0.5953  -0.1746  -0.1267  -0.0817   0.0118
     0.0514   0.1482   0.1642   0.2460   0.2500   0.2774   0.3367   0.4643
     0.5015   0.5496   0.5651   0.5947   0.6220   0.6901   0.7260   0.7498
     0.7735   0.8021   0.8746   0.8885   0.9628   0.9895   1.0210   1.2835
     1.3970

     the Fermi energy is    -0.9016 ev

!    total energy              =   -2205.51493027 Ry
     estimated scf accuracy    <       0.00000028 Ry
     smearing contrib. (-TS)   =      -0.00748303 Ry
     internal energy E=F+TS    =   -2205.50744724 Ry

     The total energy is F=E-TS. E is the sum of the following terms:
     one-electron contribution =  -18048.30966004 Ry
     hartree contribution      =    9011.01021349 Ry
     xc contribution           =    -385.26147168 Ry
     ewald contribution        =    7217.05347099 Ry

     convergence has been achieved in  15 iterations

[...]

     Forces acting on atoms (cartesian axes, Ry/au):

[...]
     atom    3 type  2   force =     0.18708284   -0.10999928  -37.48430954
     atom    4 type  1   force =    -0.54985920    0.39064005    1.13056275
     atom    5 type  2   force =    -0.90262410    1.26548211   38.40735650
     atom    6 type  2   force =     0.08004273   -0.37830913  -37.88079409
     atom    7 type  1   force =    -3.41336992   -1.74380186    0.73084224
     atom    8 type  2   force =    -1.38343086    0.24012208   38.39976933
     atom    9 type  2   force =     0.25553577   -0.10574014  -38.27255046
     atom   10 type  1   force =    -0.24423281   -0.21364207    2.63082439
     atom   11 type  2   force =    -0.62115744   -1.52283835   38.36117840
     atom   12 type  2   force =     0.07857053    0.41965354  -38.06785975
     atom   13 type  1   force =    -0.42972865    0.11928529    2.96108804
     atom   14 type  2   force =    -0.04518524   -0.34715277   38.60131367
     atom   15 type  2   force =    -0.16900178   -0.19454168  -37.46986808
     atom   16 type  1   force =     0.48923581    3.64050227    2.03319040
     atom   17 type  2   force =     0.80876667    1.19539792   38.69338878
     atom   18 type  2   force =    -0.30018082   -0.48908168  -38.12361484
     atom   19 type  1   force =     3.32747149   -1.31315791    1.80897686
     atom   20 type  2   force =     0.04840657    0.06695351  -38.63281078
     atom   21 type  1   force =    -0.45867363   -0.45122837    1.00977827
     atom   22 type  2   force =     0.76143249   -1.45617147   38.33284446
     atom   23 type  2   force =    -0.05087749    0.45956829  -37.92175068
     atom   24 type  1   force =     0.81351974   -0.19503651    3.67011584
     atom   25 type  2   force =     0.06427299    0.02520126   35.74044234
     atom   26 type  2   force =    -0.03616953   -0.05188158  -36.39422005
     atom   27 type  1   force =     0.25816848   -0.02831455    0.81023402
     atom   28 type  2   force =     0.06582214    0.48986485   38.57741117
     atom   29 type  2   force =     0.12597840   -0.31678478  -37.62924574
     atom   30 type  1   force =     0.09636832   -0.46427364    1.69458357
     atom   31 type  2   force =     1.18787084    0.30223706   38.35102759
     atom   32 type  2   force =    -0.25631335   -0.00253529  -38.12592199
     atom   33 type  1   force =     0.61664162    0.33597500    2.32529221
     atom   34 type  2   force =    -0.07687792   -0.35868027   38.82633499
     atom   35 type  2   force =     0.01625870    0.44053373  -37.67429650
     atom   36 type  3   force =     0.10345779   -0.06971052    8.72020870
     The local contribution  to forces
     atom    1 type  1   force =     0.25225397   -0.63966430   -2.75248599
     atom    2 type  2   force =     0.18837211    0.19326716  -38.86487617
     atom    3 type  2   force =    -0.18272738    0.11666781   37.23842694
     atom    4 type  1   force =     0.55333238   -0.41103747   -1.13395586
     atom    5 type  2   force =     0.89775513   -1.24224620  -38.17215110
     atom    6 type  2   force =    -0.08211834    0.38297521   37.63555808
     atom    7 type  1   force =     3.44415622    1.74388350   -0.72484455
     atom    8 type  2   force =     1.36882284   -0.23718565  -38.15653976
     atom    9 type  2   force =    -0.25222086    0.11510773   38.02801658
     atom   10 type  1   force =     0.24962597    0.21229320   -2.63148822
     atom   11 type  2   force =     0.61471756    1.51442933  -38.12545701
     atom   12 type  2   force =    -0.07469970   -0.40713589   37.82503370
     atom   13 type  1   force =     0.41036084   -0.14954200   -2.94878311
     atom   14 type  2   force =     0.05213479    0.35094622  -38.36517374
     atom   15 type  2   force =     0.16771247    0.19999332   37.22887059
     atom   16 type  1   force =    -0.49702379   -3.70262324   -2.00288024
     atom   17 type  2   force =    -0.80293926   -1.16601931  -38.46541422
     atom   18 type  2   force =     0.30404069    0.49246420   37.88186229
     atom   19 type  1   force =    -3.36662673    1.31845856   -1.79239564
     atom   20 type  2   force =    -0.04848176   -0.05551252   38.39215170
     atom   21 type  1   force =     0.45481892    0.43609620   -1.01234880
     atom   22 type  2   force =    -0.75264451    1.44722293  -38.10112802
     atom   23 type  2   force =     0.04518478   -0.44335963   37.67742257
     atom   24 type  1   force =    -0.79385316    0.16748988   -3.65642828
     atom   25 type  2   force =    -0.07878612   -0.02486048  -35.99714153
     atom   26 type  2   force =     0.03182726    0.06404689   36.12738089
     atom   27 type  1   force =    -0.25958166    0.01258932   -0.81329532
     atom   28 type  2   force =    -0.06772922   -0.46704874  -38.33637539
     atom   29 type  2   force =    -0.12506246    0.32513774   37.38233677
     atom   30 type  1   force =    -0.08999545    0.45057528   -1.70013225
     atom   31 type  2   force =    -1.17727398   -0.29916379  -38.10717807
     atom   32 type  2   force =     0.25386074    0.01690923   37.88166466
     atom   33 type  1   force =    -0.61736263   -0.31387831   -2.31309573
     atom   34 type  2   force =     0.06988992    0.36042944  -38.58525001
     atom   35 type  2   force =    -0.01711066   -0.42752210   37.42925544
     atom   36 type  3   force =    -0.10141836    0.07045508   -8.65340107
     The core correction contribution to forces
     atom    1 type  1   force =     0.00000000    0.00000000    0.00000000
     atom    2 type  2   force =    -0.00069663   -0.00003534    0.02032651
     atom    3 type  2   force =     0.00024904    0.00028107   -0.02099278
     atom    4 type  1   force =     0.00000000    0.00000000    0.00000000
     atom    5 type  2   force =    -0.00057470    0.00135360    0.02023804
     atom    6 type  2   force =    -0.00010622   -0.00003944   -0.02072956
     atom    7 type  1   force =     0.00000000    0.00000000    0.00000000
     atom    8 type  2   force =    -0.00094927    0.00041517    0.02081515
     atom    9 type  2   force =     0.00051745    0.00037603   -0.02083925
     atom   10 type  1   force =     0.00000000    0.00000000    0.00000000
     atom   11 type  2   force =    -0.00024504   -0.00091338    0.02030419
     atom   12 type  2   force =     0.00044937    0.00079716   -0.02075788
     atom   13 type  1   force =     0.00000000    0.00000000    0.00000000
     atom   14 type  2   force =     0.00076060   -0.00038143    0.02023902
     atom   15 type  2   force =    -0.00003248    0.00010537   -0.02074765
     atom   16 type  1   force =     0.00000000    0.00000000    0.00000000
     atom   17 type  2   force =     0.00055596    0.00195885    0.01990349
     atom   18 type  2   force =    -0.00000642   -0.00011353   -0.02077548
     atom   19 type  1   force =     0.00000000    0.00000000    0.00000000
     atom   20 type  2   force =     0.00006785    0.00053518   -0.02106707
     atom   21 type  1   force =     0.00000000    0.00000000    0.00000000
     atom   22 type  2   force =     0.00064572   -0.00108231    0.01999866
     atom   23 type  2   force =    -0.00028923    0.00094223   -0.02083697
     atom   24 type  1   force =     0.00000000    0.00000000    0.00000000
     atom   25 type  2   force =    -0.00103038    0.00014106   -0.01096330
     atom   26 type  2   force =    -0.00024562    0.00061504   -0.02152273
     atom   27 type  1   force =     0.00000000    0.00000000    0.00000000
     atom   28 type  2   force =    -0.00019969    0.00180864    0.02056315
     atom   29 type  2   force =     0.00005072    0.00026018   -0.02093398
     atom   30 type  1   force =     0.00000000    0.00000000    0.00000000
     atom   31 type  2   force =     0.00051822    0.00051005    0.02074458
     atom   32 type  2   force =    -0.00056557    0.00073622   -0.02080141
     atom   33 type  1   force =     0.00000000    0.00000000    0.00000000
     atom   34 type  2   force =    -0.00060120   -0.00030061    0.02055002
     atom   35 type  2   force =    -0.00018556    0.00083137   -0.02095627
     atom   36 type  3   force =     0.00000000    0.00000000    0.00000000
     The Hubbard contrib.    to forces
     atom    1 type  1   force =     0.00000000    0.00000000    0.00000000
     atom    2 type  2   force =     0.00000000    0.00000000    0.00000000
     atom    3 type  2   force =     0.00000000    0.00000000    0.00000000
     atom    4 type  1   force =     0.00000000    0.00000000    0.00000000
     atom    5 type  2   force =     0.00000000    0.00000000    0.00000000
     atom    6 type  2   force =     0.00000000    0.00000000    0.00000000
     atom    7 type  1   force =     0.00000000    0.00000000    0.00000000
     atom    8 type  2   force =     0.00000000    0.00000000    0.00000000
     atom    9 type  2   force =     0.00000000    0.00000000    0.00000000
     atom   10 type  1   force =     0.00000000    0.00000000    0.00000000
     atom   11 type  2   force =     0.00000000    0.00000000    0.00000000
     atom   12 type  2   force =     0.00000000    0.00000000    0.00000000
     atom   13 type  1   force =     0.00000000    0.00000000    0.00000000
     atom   14 type  2   force =     0.00000000    0.00000000    0.00000000
     atom   15 type  2   force =     0.00000000    0.00000000    0.00000000
     atom   16 type  1   force =     0.00000000    0.00000000    0.00000000
     atom   17 type  2   force =     0.00000000    0.00000000    0.00000000
     atom   18 type  2   force =     0.00000000    0.00000000    0.00000000
     atom   19 type  1   force =     0.00000000    0.00000000    0.00000000
     atom   20 type  2   force =     0.00000000    0.00000000    0.00000000
     atom   21 type  1   force =     0.00000000    0.00000000    0.00000000
     atom   22 type  2   force =     0.00000000    0.00000000    0.00000000
     atom   23 type  2   force =     0.00000000    0.00000000    0.00000000
     atom   24 type  1   force =     0.00000000    0.00000000    0.00000000
     atom   25 type  2   force =     0.00000000    0.00000000    0.00000000
     atom   26 type  2   force =     0.00000000    0.00000000    0.00000000
     atom   27 type  1   force =     0.00000000    0.00000000    0.00000000
     atom   28 type  2   force =     0.00000000    0.00000000    0.00000000
     atom   29 type  2   force =     0.00000000    0.00000000    0.00000000
     atom   30 type  1   force =     0.00000000    0.00000000    0.00000000
     atom   31 type  2   force =     0.00000000    0.00000000    0.00000000
     atom   32 type  2   force =     0.00000000    0.00000000    0.00000000
     atom   33 type  1   force =     0.00000000    0.00000000    0.00000000
     atom   34 type  2   force =     0.00000000    0.00000000    0.00000000
     atom   35 type  2   force =     0.00000000    0.00000000    0.00000000
     atom   36 type  3   force =     0.00000000    0.00000000    0.00000000
     The SCF correction term to forces
     atom    1 type  1   force =    -0.00000282    0.00003873   -0.00003769
     atom    2 type  2   force =     0.00003252   -0.00001251    0.00001861
     atom    3 type  2   force =    -0.00000262   -0.00001716   -0.00000408
     atom    4 type  1   force =    -0.00002540    0.00002236    0.00001358
     atom    5 type  2   force =    -0.00001377    0.00001453   -0.00000536
     atom    6 type  2   force =    -0.00000441    0.00001093    0.00002018
     atom    7 type  1   force =    -0.00001159   -0.00002373    0.00002320
     atom    8 type  2   force =     0.00001432    0.00000087    0.00003187
     atom    9 type  2   force =     0.00001011   -0.00001202   -0.00001836
     atom   10 type  1   force =     0.00001836    0.00001676    0.00002280
     atom   11 type  2   force =     0.00000616   -0.00000652    0.00000577
     atom   12 type  2   force =     0.00000041   -0.00000279    0.00000462
     atom   13 type  1   force =    -0.00001323    0.00003740    0.00002637
     atom   14 type  2   force =    -0.00000837    0.00000705   -0.00001448
     atom   15 type  2   force =     0.00000497    0.00000386    0.00002042
     atom   16 type  1   force =    -0.00000792   -0.00001187    0.00002798
     atom   17 type  2   force =    -0.00000475    0.00000577   -0.00000989
     atom   18 type  2   force =    -0.00000469    0.00001201    0.00003117
     atom   19 type  1   force =    -0.00000715   -0.00002971    0.00004825
     atom   20 type  2   force =    -0.00000718    0.00000106    0.00001520
     atom   21 type  1   force =    -0.00001938   -0.00000782    0.00002684
     atom   22 type  2   force =     0.00000601   -0.00001461    0.00000293
     atom   23 type  2   force =     0.00001651   -0.00001793    0.00000160
     atom   24 type  1   force =     0.00006099    0.00001242    0.00009113
     atom   25 type  2   force =    -0.00004114    0.00003204   -0.00001966
     atom   26 type  2   force =    -0.00001508    0.00000648    0.00002746
     atom   27 type  1   force =    -0.00003496   -0.00003253    0.00003132
     atom   28 type  2   force =     0.00002741   -0.00000750    0.00001228
     atom   29 type  2   force =     0.00001183    0.00002255    0.00001030
     atom   30 type  1   force =    -0.00001884    0.00000740    0.00003871
     atom   31 type  2   force =     0.00000516   -0.00001056    0.00002035
     atom   32 type  2   force =     0.00000799   -0.00001125   -0.00000147
     atom   33 type  1   force =    -0.00005845    0.00002517    0.00005912
     atom   34 type  2   force =    -0.00000281    0.00000788    0.00000764
     atom   35 type  2   force =    -0.00001419   -0.00001449    0.00000829
     atom   36 type  3   force =    -0.00000408    0.00000212    0.00000195

     Total force =     0.010594     Total SCF correction =     0.000233
     Energy error            =      8.6E-05 Ry
     Gradient error          =      4.6E-03 Ry/Bohr

     bfgs converged in  33 scf cycles and  32 bfgs steps
     (criteria: energy <  1.0E-04 Ry, force <  1.0E-02 Ry/Bohr)

     End of BFGS Geometry Optimization

     Final energy             =   -2205.5894722029 Ry

     File ./MoS2-V-O.bfgs deleted, as requested
Begin final coordinates

ATOMIC_POSITIONS (angstrom)
Mo            6.6011526778        1.7814925524        2.7676166689
S             8.1505086221        0.8658452916        4.3842701653
S             8.1820825294        0.8749657169        1.1829711338
Mo            8.1546235660        4.5183664649        2.7226383755
S             6.5456298652        3.6979198372        4.3165681167
S             6.5937393332        3.5913860403        1.1184313471
Mo            6.5819747565        7.2133122602        2.6319307045
S             8.1023080928        6.3316629490        4.3040571976
S             8.1897568645        6.3261172529        1.0931658666
Mo            8.1761200488        9.9628762087        2.7622963481
S             6.5650792787        8.9604379286        4.3110392776
S             6.6289788348        9.0742865826        1.1111642431
Mo            3.5060994118        1.8083653232        2.7748708153
S             5.0537829239        0.8300989137        4.3480615817
S             5.0363445061        0.8631517258        1.1719479119
Mo            5.0105081792        4.5650911483        2.6605016140
S             3.4994250184        3.7180730574        4.3345274703
S             3.4631784645        3.5835428590        1.1121926065
Mo            3.4840822252        7.1605370063        2.6526661603
S             5.0327833762        6.3306194126        1.0323904780
Mo            5.0326166462        9.9213311282        2.7251615085
S             3.5164791904        8.9113070213        4.3178248933
S             3.4402439321        9.0328553618        1.1176535796
Mo            0.2666832020        1.7826848695        2.7969389000
S             1.9213847827        0.8306355684        4.2737758947
S             1.8869095641        0.8601252610        1.2299674197
Mo            1.8847098502        4.4990915241        2.7198546199
S             0.2819012577        3.6481943113        4.3408635308
S             0.2859804555        3.5655467305        1.1562983675
Mo            0.2867684412        7.2263948956        2.7287402594
S             1.9199919751        6.3120937591        4.3047047361
S             1.8558418011        6.3160763688        1.1010204606
Mo            1.8946091039        9.8910743815        2.7633027719
S             0.2906998189        9.0201922397        4.3566124810
S             0.2986500018        9.0611043050        1.1596997866
H             2.0029717473        0.7584123749        5.6346125793
End final coordinates

     Writing all to output data dir ./MoS2-V-O.save/

     General routines

     Parallel routines

   This run was terminated on:  22: 4:56   3Nov2023

   JOB DONE.