     Program PWSCF v.7.2 starts on  4Nov2023 at 12:24: 3

     Waiting for input...
     Reading input from standard input
Warning: card &CELL ignored
Warning: card CELL_DYNAMICS = 'BFGS', ignored
Warning: card CELL_DOFREE = '2DXY' ignored
Warning: card / ignored

     Current dimensions of program PWSCF are:
     Max number of different atomic species (ntypx) = 10
     Max number of k-points (npk) =  40000
     Max angular momentum in pseudopotentials (lmaxx) =  4
     file O.pbe-n-kjpaw_psl.0.1.UPF: wavefunction(s)  2P renormalized

     IMPORTANT: XC functional enforced from input :
     Exchange-correlation= RVV10
                           (   1   4  13   4  26   0   0)
     Any further DFT definition will be discarded
     Please, verify this is what you really want

     gamma-point specific algorithms are used
     signal trapping enabled: kill the code with -SIGUSR1 to stop cleanly the simulation

     R & G space division:  proc/nbgrp/npool/nimage =      48
     Subspace diagonalization in iterative solution of the eigenvalue problem:
     one sub-group per band group will be used

     Using Slab Decomposition

     bravais-lattice index     =            0
     lattice parameter (alat)  =      17.8707  a.u.
     unit-cell volume          =   17436.2743 (a.u.)^3
     number of atoms/cell      =           36
     number of atomic types    =            3
     number of electrons       =       312.00
     number of Kohn-Sham states=          187
     kinetic-energy cutoff     =      80.0000  Ry
     charge density cutoff     =     650.0000  Ry
     scf convergence threshold =      1.0E-06
     mixing beta               =       0.7000
     number of iterations used =            8  local-TF  mixing
     energy convergence thresh.=      1.0E-04
     force convergence thresh. =      1.0E-02
     Exchange-correlation= RVV10
                           (   1   4  13   4  26   0   0)
     nstep                     =          200

     celldm(1)=  17.870686  celldm(2)=   0.000000  celldm(3)=   0.000000
     celldm(4)=   0.000000  celldm(5)=   0.000000  celldm(6)=   0.000000

     crystal axes: (cart. coord. in units of alat)
               a(1) = (   1.000000   0.000000   0.000000 )
               a(2) = (   0.000000   1.155671   0.000000 )
               a(3) = (   0.000000   0.000000   2.643601 )

     reciprocal axes: (cart. coord. in units 2 pi/alat)
               b(1) = (  1.000000  0.000000  0.000000 )
               b(2) = (  0.000000  0.865298  0.000000 )
               b(3) = (  0.000000  0.000000  0.378272 )

     PseudoPot. # 1 for Mo read from file:
     ../../pseudo/Mo_ONCV_PBE-1.0.oncvpsp.upf
     MD5 check sum: 1b5d28e075c9ccadda658a603575cd1f
     Pseudo is Norm-conserving, Zval = 14.0
     Generated using ONCVPSP code by D. R. Hamann
     Using radial grid of 1526 points,  6 beta functions with:
                l(1) =   0
                l(2) =   0
                l(3) =   1
                l(4) =   1
                l(5) =   2
                l(6) =   2

     PseudoPot. # 2 for S  read from file:
     ../../pseudo/s_pbe_v1.4.uspp.F.UPF
     MD5 check sum: 88d86576ff6df21479756cfb9bdac1df
     Pseudo is Ultrasoft + core correction, Zval =  6.0
     Generated by new atomic code, or converted to UPF format
     Using radial grid of  907 points,  6 beta functions with:
                l(1) =   0
                l(2) =   0
                l(3) =   1
                l(4) =   1
                l(5) =   2
                l(6) =   2
     Q(r) pseudized with  8 coefficients,  rinner =    1.300   1.300   1.300
                                                       1.300   1.300

     PseudoPot. # 3 for O  read from file:
     ../../pseudo/O.pbe-n-kjpaw_psl.0.1.UPF
     MD5 check sum: 0234752ac141de4415c5fc33072bef88
     Pseudo is Projector augmented-wave + core cor, Zval =  6.0
     Generated using "atomic" code by A. Dal Corso  v.5.0.99 svn rev. 10869
     Shape of augmentation charge: BESSEL
     Using radial grid of 1095 points,  4 beta functions with:
                l(1) =   0
                l(2) =   0
                l(3) =   1
                l(4) =   1
     Q(r) pseudized with 0 coefficients

     atomic species   valence    mass     pseudopotential
        Mo            14.00    95.94000     Mo( 1.00)
        S              6.00    32.06500     S ( 1.00)
        O              6.00    15.99940     O ( 1.00)

     No symmetry found

   Cartesian axes

     site n.     atom                  positions (alat units)
         1           Mo  tau(   1) = (   0.6952221   0.1890506   0.2985846  )
         2           S   tau(   2) = (   0.8646417   0.0856217   0.4689279  )
         3           S   tau(   3) = (   0.8663890   0.0857843   0.1351291  )
         4           Mo  tau(   4) = (   0.8560186   0.4753274   0.2873942  )
         5           S   tau(   5) = (   0.6873294   0.3936244   0.4596353  )
         6           S   tau(   6) = (   0.6929804   0.3713468   0.1185692  )
         7           Mo  tau(   7) = (   0.6862796   0.7633098   0.2825370  )
         8           S   tau(   8) = (   0.8545980   0.6708292   0.4486168  )
         9           S   tau(   9) = (   0.8545123   0.6666874   0.1146125  )
        10           Mo  tau(  10) = (   0.8629403   1.0471007   0.3006803  )
        11           S   tau(  11) = (   0.6868280   0.9456650   0.4634891  )
        12           S   tau(  12) = (   0.6998113   0.9568511   0.1205389  )
        13           Mo  tau(  13) = (   0.3618216   0.1847309   0.2935964  )
        14           S   tau(  14) = (   0.5260962   0.0863870   0.4600448  )
        15           S   tau(  15) = (   0.5348379   0.0894875   0.1297123  )
        16           Mo  tau(  16) = (   0.5265817   0.4772436   0.2784130  )
        17           S   tau(  17) = (   0.3624753   0.3882513   0.4525556  )
        18           S   tau(  18) = (   0.3635411   0.3752055   0.1119148  )
        19           Mo  tau(  19) = (   0.3652268   0.7630864   0.2781795  )
        20           S   tau(  20) = (   0.5269494   0.6690381   0.1096838  )
        21           Mo  tau(  21) = (   0.5300192   1.0470394   0.2900995  )
        22           S   tau(  22) = (   0.3670346   0.9457522   0.4574073  )
        23           S   tau(  23) = (   0.3604225   0.9585725   0.1159032  )
        24           Mo  tau(  24) = (   0.0313099   0.1847895   0.3013130  )
        25           S   tau(  25) = (   0.1956761   0.0838230   0.4650863  )
        26           S   tau(  26) = (   0.1967693   0.0903508   0.1278874  )
        27           Mo  tau(  27) = (   0.1967578   0.4753919   0.2813011  )
        28           S   tau(  28) = (   0.0287851   0.3864324   0.4586755  )
        29           S   tau(  29) = (   0.0244514   0.3729871   0.1239344  )
        30           Mo  tau(  30) = (   0.0286728   0.7631204   0.2856894  )
        31           S   tau(  31) = (   0.2011512   0.6675435   0.4465001  )
        32           S   tau(  32) = (   0.1969214   0.6672839   0.1104564  )
        33           Mo  tau(  33) = (   0.1950294   1.0511147   0.2932237  )
        34           S   tau(  34) = (   0.0312912   0.9612169   0.4667423  )
        35           S   tau(  35) = (   0.0292670   0.9563028   0.1216485  )
        36           O   tau(  36) = (   0.1111111   0.0000000   0.5650415  )

     number of k points=     1  Gaussian smearing, width (Ry)=  0.0100
                       cart. coord. in units 2pi/alat
        k(    1) = (   0.0000000   0.0000000   0.0000000), wk =   2.0000000

     Initial potential from superposition of free atoms

     starting charge     311.9873, renormalised to     312.0000

     negative rho (up, down):  2.751E-04 0.000E+00

Carrying out rVV10 run using the following parameters:
Nqs =      20    Nr_points =    1024   r_max =   100.000
b_value =  6.30000    beta =  0.00901
     q_mesh =  0.00010000  0.00030000  0.00058939  0.00100810
               0.00161396  0.00249058  0.00375900  0.00559430
               0.00824984  0.01209221  0.01765183  0.02569619
               0.03733578  0.05417739  0.07854596  0.11380545
               0.16482331  0.23864234  0.34545298  0.50000000

Gradients computed in Reciprocal space

     Starting wfcs are  216 randomized atomic wfcs
     Checking if some PAW data can be deallocated...

     Self-consistent Calculation

     iteration #  1     ecut=    80.00 Ry     beta= 0.70
     Davidson diagonalization with overlap
     ethr =  1.00E-02,  avg # of iterations =  2.0

     Threshold (ethr) on eigenvalues was too large:
     Diagonalizing with lowered threshold

     Davidson diagonalization with overlap
     ethr =  4.48E-04,  avg # of iterations =  4.0

[...]

     total energy              =   -2246.23483105 Ry
     estimated scf accuracy    <       1.64508726 Ry

[...]

     End of self-consistent calculation

          k = 0.0000 0.0000 0.0000 (105382 PWs)   bands (ev):

   -63.0086 -62.9322 -62.9239 -62.9162 -62.9047 -62.8585 -62.8451 -62.8403
   -62.8351 -62.7887 -62.7375 -62.6964 -37.3019 -37.2733 -37.2280 -37.2055
   -37.1954 -37.1820 -37.1479 -37.1413 -37.1192 -37.1146 -37.1040 -37.0957
   -37.0906 -37.0741 -37.0638 -37.0363 -37.0320 -37.0268 -37.0225 -37.0098
   -37.0033 -36.9966 -36.9863 -36.9761 -36.9745 -36.9518 -36.9437 -36.9103
   -36.9059 -36.8756 -36.8714 -36.8482 -36.8450 -36.8035 -36.7952 -36.7420
   -23.3973 -15.9636 -15.2563 -15.1625 -15.0019 -14.9011 -14.8141 -14.6658
   -14.5322 -14.4849 -14.4438 -14.4221 -14.3725 -14.3364 -14.2597 -14.1985
   -14.1773 -14.1470 -14.0774 -14.0064 -13.8945 -13.8667 -13.8397 -13.6153
    -8.7035  -8.1420  -7.9872  -7.5740  -7.4581  -7.3171  -7.2998  -7.2236
    -7.1925  -7.0806  -6.9027  -6.8603  -6.8423  -6.7196  -6.6890  -6.5974
    -6.5475  -6.4768  -6.3861  -6.3115  -6.1273  -6.0815  -5.9628  -5.8857
    -5.8656  -5.8019  -5.7597  -5.7299  -5.7009  -5.6931  -5.6237  -5.5976
    -5.5720  -5.5033  -5.4397  -5.4146  -5.2869  -5.1281  -5.0708  -5.0422
    -5.0135  -4.9762  -4.9243  -4.8078  -4.7154  -4.5978  -4.5067  -4.3581
    -4.2967  -4.2105  -4.2010  -4.1268  -4.0520  -3.9458  -3.9065  -3.8337
    -3.8002  -3.7615  -3.6596  -3.6182  -3.6023  -3.5714  -3.5246  -3.4867
    -3.4412  -3.4014  -3.2493  -3.2355  -3.1290  -2.9726  -2.9423  -2.8671
    -2.8468  -2.7947  -2.7597  -2.7065  -2.6754  -2.6576  -2.5549  -2.3119
    -2.2311  -2.0183  -1.9080  -1.8216  -1.0635  -0.7936  -0.7291  -0.2068
    -0.1814  -0.1190  -0.0550   0.0533   0.1205   0.1455   0.1980   0.2478
     0.2824   0.2918   0.3782   0.4850   0.5064   0.5371   0.5578   0.5820
     0.6833   0.7001   0.7209   0.7270   0.8048   0.8235   0.8558   0.9528
     1.0161   1.0420   1.2465

     the Fermi energy is    -1.4424 ev

!    total energy              =   -2246.25370243 Ry
     estimated scf accuracy    <       0.00000086 Ry
     smearing contrib. (-TS)   =      -0.00000486 Ry
     internal energy E=F+TS    =   -2246.25369757 Ry

     The total energy is F=E-TS. E is the sum of the following terms:
     one-electron contribution =  -18468.94770177 Ry
     hartree contribution      =    9222.78576238 Ry
     xc contribution           =    -392.22822020 Ry
     ewald contribution        =    7401.99218124 Ry
[...]
     atom    3 type  2   force =    -0.01511439   -0.06570052  -38.35308379
     atom    4 type  1   force =    -0.53057209    0.85569661   -0.48335366
     atom    5 type  2   force =    -0.80437234    1.44124330   38.05104961
     atom    6 type  2   force =     0.15313394   -0.25002147  -38.37719662
     atom    7 type  1   force =    -2.62631188   -1.99847206    1.64817122
     atom    8 type  2   force =    -1.28704773    0.16102793   38.03159755
     atom    9 type  2   force =     0.29048353   -0.03065872  -38.43011482
     atom   10 type  1   force =    -1.04568248   -0.99789030    1.20115487
     atom   11 type  2   force =    -0.43779004   -1.70385590   38.19868794
     atom   12 type  2   force =     0.17729682    0.21092597  -38.41170053
     atom   13 type  1   force =     1.11798269    1.23700241   -1.18030723
     atom   14 type  2   force =     0.98850281   -0.14307018   37.88327332
     atom   15 type  2   force =     0.03299089   -0.11679275  -38.26322351
     atom   16 type  1   force =     0.39705378    3.81097997    1.28291953
     atom   17 type  2   force =     1.32305995    2.12905935   37.85402996
     atom   18 type  2   force =    -0.16414381   -0.18399317  -38.70975428
     atom   19 type  1   force =     2.80441170   -2.35399108    2.09599950
     atom   20 type  2   force =     0.02433556   -0.04948233  -39.07538203
     atom   21 type  1   force =     0.54907034   -0.79056918   -0.50450370
     atom   22 type  2   force =     1.00942872   -2.29211070   37.96082077
     atom   23 type  2   force =    -0.11825643    0.21430276  -38.67563480
     atom   24 type  1   force =    -0.93173747    0.99089156   -1.81570052
     atom   25 type  2   force =     0.30921613   -0.02315719   28.69362868
     atom   26 type  2   force =    -0.01489338   -0.06961148  -38.13079464
     atom   27 type  1   force =     0.14266117    1.23945475   -0.57698082
     atom   28 type  2   force =    -0.52827159    1.52659790   37.58784729
     atom   29 type  2   force =     0.00825664    0.07498263  -38.41162793
     atom   30 type  1   force =    -0.15853577   -1.17053557    0.69989518
     atom   31 type  2   force =     1.13072243    0.17743092   37.94753290
     atom   32 type  2   force =    -0.31675975   -0.01775548  -38.26988346
     atom   33 type  1   force =     0.48548422   -1.56470071   -1.22927890
     atom   34 type  2   force =    -0.59203910   -1.46053108   38.19621824
     atom   35 type  2   force =    -0.06457525    0.06217851  -38.37356186
     atom   36 type  3   force =     0.07399446    0.09612354   50.47911100
     The local contribution  to forces
     atom    1 type  1   force =     0.19885065   -1.09156498   -1.31723666
     atom    2 type  2   force =     1.18466682    0.01839104  -37.89413234
     atom    3 type  2   force =     0.01818241    0.07548133   38.11021706
     atom    4 type  1   force =     0.52713151   -0.86260130    0.47759576
     atom    5 type  2   force =     0.80057080   -1.41771765  -37.81338895
     atom    6 type  2   force =    -0.15350297    0.25536019   38.12981729
     atom    7 type  1   force =     2.64057353    1.99473504   -1.62297014
     atom    8 type  2   force =     1.27835446   -0.16149460  -37.78470741
     atom    9 type  2   force =    -0.28444899    0.04244365   38.18251004
     atom   10 type  1   force =     1.04287962    0.99095219   -1.20357633
     atom   11 type  2   force =     0.43344584    1.70267334  -37.95734265
     atom   12 type  2   force =    -0.17003036   -0.19800792   38.16676669
     atom   13 type  1   force =    -1.11150646   -1.25064567    1.16984385
     atom   14 type  2   force =    -0.98797611    0.14703523  -37.62985448
     atom   15 type  2   force =    -0.03384188    0.12672256   38.02312769
     atom   16 type  1   force =    -0.39695314   -3.84652919   -1.24791633
     atom   17 type  2   force =    -1.31848980   -2.10843569  -37.61643178
     atom   18 type  2   force =     0.16377237    0.18612521   38.46506428
     atom   19 type  1   force =    -2.82369773    2.35443402   -2.06960074
     atom   20 type  2   force =    -0.02529830    0.06178066   38.83420245
     atom   21 type  1   force =    -0.54797095    0.76183288    0.50165212
     atom   22 type  2   force =    -1.00304407    2.29140991  -37.71895674
     atom   23 type  2   force =     0.11116782   -0.20139906   38.43223650
     atom   24 type  1   force =     0.92389463   -0.99731195    1.79603442
     atom   25 type  2   force =    -0.30199278    0.01961865  -28.98015095
     atom   26 type  2   force =     0.01284975    0.08030015   37.87344084
     atom   27 type  1   force =    -0.13760885   -1.24258790    0.57452231
     atom   28 type  2   force =     0.52781074   -1.51388226  -37.33138132
     atom   29 type  2   force =    -0.00782761   -0.06762297   38.16528795
     atom   30 type  1   force =     0.16348490    1.15198472   -0.70372632
     atom   31 type  2   force =    -1.12486772   -0.17763698  -37.70074670
     atom   32 type  2   force =     0.31127607    0.03061096   38.01965417
     atom   33 type  1   force =    -0.48440166    1.54858812    1.21234864
     atom   34 type  2   force =     0.59000693    1.46647649  -37.93897982
     atom   35 type  2   force =     0.06429816   -0.04958633   38.12965349
     atom   36 type  3   force =    -0.10899016   -0.09426431  -48.18823391
     The core correction contribution to forces
     atom    1 type  1   force =     0.00000000    0.00000000    0.00000000
     atom    2 type  2   force =     0.00011670    0.00018744    0.02132813
     atom    3 type  2   force =     0.00022357    0.00038379   -0.02077028
     atom    4 type  1   force =     0.00000000    0.00000000    0.00000000
     atom    5 type  2   force =    -0.00038059    0.00107057    0.02057137
     atom    6 type  2   force =     0.00009882   -0.00020718   -0.02090221
     atom    7 type  1   force =     0.00000000    0.00000000    0.00000000
     atom    8 type  2   force =    -0.00044383    0.00027975    0.02097375
     atom    9 type  2   force =     0.00065098    0.00062787   -0.02102167
     atom   10 type  1   force =     0.00000000    0.00000000    0.00000000
     atom   11 type  2   force =    -0.00004231   -0.00033945    0.02074460
     atom   12 type  2   force =     0.00064671    0.00095255   -0.02090066
     atom   13 type  1   force =     0.00000000    0.00000000    0.00000000
     atom   14 type  2   force =    -0.00001987   -0.00018659    0.02136804
     atom   15 type  2   force =    -0.00007090    0.00045519   -0.02057617
     atom   16 type  1   force =     0.00000000    0.00000000    0.00000000
     atom   17 type  2   force =     0.00036595    0.00093837    0.02069001
     atom   18 type  2   force =    -0.00019605   -0.00025685   -0.02082646
     atom   19 type  1   force =     0.00000000    0.00000000    0.00000000
     atom   20 type  2   force =    -0.00013197    0.00059580   -0.02120862
     atom   21 type  1   force =     0.00000000    0.00000000    0.00000000
     atom   22 type  2   force =     0.00015265   -0.00016606    0.02092571
     atom   23 type  2   force =    -0.00058061    0.00091499   -0.02086157
     atom   24 type  1   force =     0.00000000    0.00000000    0.00000000
     atom   25 type  2   force =     0.00043993   -0.00021138   -0.00988399
     atom   26 type  2   force =    -0.00009163    0.00050075   -0.02134239
     atom   27 type  1   force =     0.00000000    0.00000000    0.00000000
     atom   28 type  2   force =    -0.00001171    0.00083571    0.02146085
     atom   29 type  2   force =     0.00006538    0.00027361   -0.02079132
     atom   30 type  1   force =     0.00000000    0.00000000    0.00000000
     atom   31 type  2   force =     0.00024200    0.00028440    0.02096534
     atom   32 type  2   force =    -0.00053329    0.00071023   -0.02103512
     atom   33 type  1   force =     0.00000000    0.00000000    0.00000000
     atom   34 type  2   force =    -0.00013324    0.00027533    0.02160538
     atom   35 type  2   force =    -0.00005392    0.00083977   -0.02090907
     atom   36 type  3   force =    -0.00038787   -0.00000583    0.02461031
     The Hubbard contrib.    to forces
     atom    1 type  1   force =     0.00000000    0.00000000    0.00000000
     atom    2 type  2   force =     0.00000000    0.00000000    0.00000000
     atom    3 type  2   force =     0.00000000    0.00000000    0.00000000
     atom    4 type  1   force =     0.00000000    0.00000000    0.00000000
     atom    5 type  2   force =     0.00000000    0.00000000    0.00000000
     atom    6 type  2   force =     0.00000000    0.00000000    0.00000000
     atom    7 type  1   force =     0.00000000    0.00000000    0.00000000
     atom    8 type  2   force =     0.00000000    0.00000000    0.00000000
     atom    9 type  2   force =     0.00000000    0.00000000    0.00000000
     atom   10 type  1   force =     0.00000000    0.00000000    0.00000000
     atom   11 type  2   force =     0.00000000    0.00000000    0.00000000
     atom   12 type  2   force =     0.00000000    0.00000000    0.00000000
     atom   13 type  1   force =     0.00000000    0.00000000    0.00000000
     atom   14 type  2   force =     0.00000000    0.00000000    0.00000000
     atom   15 type  2   force =     0.00000000    0.00000000    0.00000000
     atom   16 type  1   force =     0.00000000    0.00000000    0.00000000
     atom   17 type  2   force =     0.00000000    0.00000000    0.00000000
     atom   18 type  2   force =     0.00000000    0.00000000    0.00000000
     atom   19 type  1   force =     0.00000000    0.00000000    0.00000000
     atom   20 type  2   force =     0.00000000    0.00000000    0.00000000
     atom   21 type  1   force =     0.00000000    0.00000000    0.00000000
     atom   22 type  2   force =     0.00000000    0.00000000    0.00000000
     atom   23 type  2   force =     0.00000000    0.00000000    0.00000000
     atom   24 type  1   force =     0.00000000    0.00000000    0.00000000
     atom   25 type  2   force =     0.00000000    0.00000000    0.00000000
     atom   26 type  2   force =     0.00000000    0.00000000    0.00000000
     atom   27 type  1   force =     0.00000000    0.00000000    0.00000000
     atom   28 type  2   force =     0.00000000    0.00000000    0.00000000
     atom   29 type  2   force =     0.00000000    0.00000000    0.00000000
     atom   30 type  1   force =     0.00000000    0.00000000    0.00000000
     atom   31 type  2   force =     0.00000000    0.00000000    0.00000000
     atom   32 type  2   force =     0.00000000    0.00000000    0.00000000
     atom   33 type  1   force =     0.00000000    0.00000000    0.00000000
     atom   34 type  2   force =     0.00000000    0.00000000    0.00000000
     atom   35 type  2   force =     0.00000000    0.00000000    0.00000000
     atom   36 type  3   force =     0.00000000    0.00000000    0.00000000
     The SCF correction term to forces
     atom    1 type  1   force =    -0.00000632    0.00001912   -0.00004750
     atom    2 type  2   force =    -0.00002439    0.00000826   -0.00003130
     atom    3 type  2   force =    -0.00001272   -0.00001205   -0.00001681
     atom    4 type  1   force =    -0.00001949    0.00000686   -0.00003777
     atom    5 type  2   force =    -0.00001150    0.00000730   -0.00002492
     atom    6 type  2   force =     0.00000005    0.00000901    0.00000136
     atom    7 type  1   force =    -0.00001162   -0.00001030   -0.00007694
     atom    8 type  2   force =    -0.00000666   -0.00002002   -0.00002560
     atom    9 type  2   force =    -0.00000308    0.00000182   -0.00002195
     atom   10 type  1   force =    -0.00001889   -0.00000638   -0.00008493
     atom   11 type  2   force =    -0.00001041    0.00000420   -0.00003146
     atom   12 type  2   force =    -0.00000156    0.00000039   -0.00001834
     atom   13 type  1   force =     0.00003368    0.00000877   -0.00003620
     atom   14 type  2   force =    -0.00000550    0.00001320   -0.00002943
     atom   15 type  2   force =     0.00000207   -0.00000840   -0.00000249
     atom   16 type  1   force =     0.00000326    0.00000699   -0.00002225
     atom   17 type  2   force =     0.00001228    0.00000713   -0.00002674
     atom   18 type  2   force =     0.00000243    0.00000791    0.00000527
     atom   19 type  1   force =     0.00000826   -0.00001903   -0.00005370
     atom   20 type  2   force =     0.00000913   -0.00000067   -0.00000699
     atom   21 type  1   force =     0.00001705    0.00000483   -0.00007036
     atom   22 type  2   force =     0.00001824   -0.00000592   -0.00003180
     atom   23 type  2   force =     0.00000679   -0.00000145   -0.00001162
     atom   24 type  1   force =    -0.00000304    0.00002711   -0.00006699
     atom   25 type  2   force =     0.00001943    0.00001546   -0.00004184
     atom   26 type  2   force =     0.00000584   -0.00000063   -0.00001495
     atom   27 type  1   force =     0.00001673    0.00001040   -0.00004235
     atom   28 type  2   force =    -0.00000282    0.00001566   -0.00002870
     atom   29 type  2   force =    -0.00000430    0.00001287   -0.00000772
     atom   30 type  1   force =    -0.00001876   -0.00002783   -0.00008297
     atom   31 type  2   force =     0.00001398   -0.00001981   -0.00002552
     atom   32 type  2   force =     0.00000262   -0.00000325   -0.00001398
     atom   33 type  1   force =     0.00000701   -0.00001348   -0.00009997
     atom   34 type  2   force =    -0.00000629   -0.00000833   -0.00003248
     atom   35 type  2   force =    -0.00000751    0.00000213   -0.00003137
     atom   36 type  3   force =     0.00002614    0.00002872   -0.00001711

     Total force =     0.006563     Total SCF correction =     0.000274
     Energy error            =      8.4E-05 Ry
     Gradient error          =      2.7E-03 Ry/Bohr

     bfgs converged in  22 scf cycles and  21 bfgs steps
     (criteria: energy <  1.0E-04 Ry, force <  1.0E-02 Ry/Bohr)

     End of BFGS Geometry Optimization

     Final energy             =   -2246.4497927854 Ry

     File ./MoS2-V-O.bfgs deleted, as requested
Begin final coordinates

ATOMIC_POSITIONS (angstrom)
Mo            6.5440420000        1.7229063163        2.7596188193
S             8.1185671257        0.8249001091        4.3641481099
S             8.1119512388        0.8134080734        1.1628518992
Mo            8.1029041178        4.4751328919        2.7114869730
S             6.5050380625        3.6395825376        4.3114220805
S             6.5310000341        3.5387788678        1.1184483486
Mo            6.4968081124        7.1586576368        2.6642912826
S             8.0605401505        6.2843078482        4.2983281091
S             8.1166980817        6.3015944703        1.1071295807
Mo            8.1180986204        9.9145647860        2.7622371427
S             6.5005921745        8.9241561021        4.3186953600
S             6.5685325076        9.0056845955        1.1219127151
Mo            3.4302380130        1.7570472212        2.7503028655
S             4.9702368138        0.7922225789        4.3434560252
S             4.9816090539        0.8128616136        1.1619764777
Mo            4.9742721223        4.5233998979        2.6638193795
S             3.4491775820        3.6477641431        4.3200359489
S             3.4184918746        3.5607849922        1.1091514387
Mo            3.4574113601        7.1608944289        2.6758776647
S             4.9713037807        6.2928014976        1.0462819250
Mo            4.9716074619        9.8832343672        2.7257565732
S             3.4460948292        8.9255798813        4.3259538490
S             3.3908176559        8.9930807617        1.1167403089
Mo            0.2224237142        1.7413241736        2.7510279694
S             1.8336848805        0.8222189594        4.2721425979
S             1.8314602104        0.8254433755        1.1860042558
Mo            1.8450011275        4.4712368252        2.7185240179
S             0.2410193336        3.5858154164        4.3224171317
S             0.2437425703        3.5568159571        1.1383179538
Mo            0.2388283983        7.1981661744        2.7320181370
S             1.8771430477        6.2834601913        4.3043276273
S             1.8335532833        6.3042269595        1.1182189507
Mo            1.8309488156        9.8835201597        2.7514712884
S             0.2446432793        9.0035481146        4.3592942149
S             0.2335207943        9.0218244281        1.1541032611
O             1.8110958946        0.8300000571        5.7725495889
End final coordinates

     Writing all to output data dir ./MoS2-V-O.save/

     General routines

     Parallel routines

   This run was terminated on:  13: 4:17   4Nov2023

   JOB DONE.