     Program PWSCF v.7.2 starts on  1Nov2023 at 16:45:52

     Waiting for input...
     Reading input from standard input
Warning: card &CELL ignored
Warning: card CELL_DYNAMICS = 'BFGS', ignored
Warning: card CELL_DOFREE = '2DXY' ignored
Warning: card / ignored

     Current dimensions of program PWSCF are:
     Max number of different atomic species (ntypx) = 10
     Max number of k-points (npk) =  40000
     Max angular momentum in pseudopotentials (lmaxx) =  4
     file O.pbe-n-kjpaw_psl.0.1.UPF: wavefunction(s)  2P renormalized

     IMPORTANT: XC functional enforced from input :
     Exchange-correlation= RVV10
                           (   1   4  13   4  26   0   0)
     Any further DFT definition will be discarded
     Please, verify this is what you really want

     gamma-point specific algorithms are used
     signal trapping enabled: kill the code with -SIGUSR1 to stop cleanly the simulation

     R & G space division:  proc/nbgrp/npool/nimage =      48
     Subspace diagonalization in iterative solution of the eigenvalue problem:
     one sub-group per band group will be used

     Using Slab Decomposition

     bravais-lattice index     =            0
     lattice parameter (alat)  =      17.8707  a.u.
     unit-cell volume          =   17436.2743 (a.u.)^3
     number of atoms/cell      =           36
     number of atomic types    =            3
     number of electrons       =       312.00
     number of Kohn-Sham states=          187
     kinetic-energy cutoff     =      80.0000  Ry
     charge density cutoff     =     650.0000  Ry
     scf convergence threshold =      1.0E-06
     mixing beta               =       0.7000
     number of iterations used =            8  local-TF  mixing
     energy convergence thresh.=      1.0E-04
     force convergence thresh. =      1.0E-02
     Exchange-correlation= RVV10
                           (   1   4  13   4  26   0   0)
     nstep                     =          200

     celldm(1)=  17.870686  celldm(2)=   0.000000  celldm(3)=   0.000000
     celldm(4)=   0.000000  celldm(5)=   0.000000  celldm(6)=   0.000000

     crystal axes: (cart. coord. in units of alat)
               a(1) = (   1.000000   0.000000   0.000000 )
               a(2) = (   0.000000   1.155671   0.000000 )
               a(3) = (   0.000000   0.000000   2.643601 )

     reciprocal axes: (cart. coord. in units 2 pi/alat)
               b(1) = (  1.000000  0.000000  0.000000 )
               b(2) = (  0.000000  0.865298  0.000000 )
               b(3) = (  0.000000  0.000000  0.378272 )

     PseudoPot. # 1 for Mo read from file:
     ../pseudo/Mo_ONCV_PBE-1.0.oncvpsp.upf
     MD5 check sum: 1b5d28e075c9ccadda658a603575cd1f
     Pseudo is Norm-conserving, Zval = 14.0
     Generated using ONCVPSP code by D. R. Hamann
     Using radial grid of 1526 points,  6 beta functions with:
                l(1) =   0
                l(2) =   0
                l(3) =   1
                l(4) =   1
                l(5) =   2
                l(6) =   2

     PseudoPot. # 2 for S  read from file:
     ../pseudo/s_pbe_v1.4.uspp.F.UPF
     MD5 check sum: 88d86576ff6df21479756cfb9bdac1df
     Pseudo is Ultrasoft + core correction, Zval =  6.0
     Generated by new atomic code, or converted to UPF format
     Using radial grid of  907 points,  6 beta functions with:
                l(1) =   0
                l(2) =   0
                l(3) =   1
                l(4) =   1
                l(5) =   2
                l(6) =   2
     Q(r) pseudized with  8 coefficients,  rinner =    1.300   1.300   1.300
                                                       1.300   1.300

     PseudoPot. # 3 for O  read from file:
     ../pseudo/O.pbe-n-kjpaw_psl.0.1.UPF
     MD5 check sum: 0234752ac141de4415c5fc33072bef88
     Pseudo is Projector augmented-wave + core cor, Zval =  6.0
     Generated using "atomic" code by A. Dal Corso  v.5.0.99 svn rev. 10869
     Shape of augmentation charge: BESSEL
     Using radial grid of 1095 points,  4 beta functions with:
                l(1) =   0
                l(2) =   0
                l(3) =   1
                l(4) =   1
     Q(r) pseudized with 0 coefficients

     atomic species   valence    mass     pseudopotential
        Mo            14.00    95.94000     Mo( 1.00)
        S              6.00    32.06500     S ( 1.00)
        O              6.00    15.99940     O ( 1.00)

     No symmetry found

   Cartesian axes

     site n.     atom                  positions (alat units)
         1           Mo  tau(   1) = (   0.6952221   0.1890506   0.2985846  )
         2           S   tau(   2) = (   0.8646417   0.0856217   0.4689279  )
         3           S   tau(   3) = (   0.8663890   0.0857843   0.1351291  )
         4           Mo  tau(   4) = (   0.8560186   0.4753274   0.2873942  )
         5           S   tau(   5) = (   0.6873294   0.3936244   0.4596353  )
         6           S   tau(   6) = (   0.6929804   0.3713468   0.1185692  )
         7           Mo  tau(   7) = (   0.6862796   0.7633098   0.2825370  )
         8           S   tau(   8) = (   0.8545980   0.6708292   0.4486168  )
         9           S   tau(   9) = (   0.8545123   0.6666874   0.1146125  )
        10           Mo  tau(  10) = (   0.8629403   1.0471007   0.3006803  )
        11           S   tau(  11) = (   0.6868280   0.9456650   0.4634891  )
        12           S   tau(  12) = (   0.6998113   0.9568511   0.1205389  )
        13           Mo  tau(  13) = (   0.3618216   0.1847309   0.2935964  )
        14           S   tau(  14) = (   0.5260962   0.0863870   0.4600448  )
        15           S   tau(  15) = (   0.5348379   0.0894875   0.1297123  )
        16           Mo  tau(  16) = (   0.5265817   0.4772436   0.2784130  )
        17           S   tau(  17) = (   0.3624753   0.3882513   0.4525556  )
        18           S   tau(  18) = (   0.3635411   0.3752055   0.1119148  )
        19           Mo  tau(  19) = (   0.3652268   0.7630864   0.2781795  )
        20           S   tau(  20) = (   0.5269494   0.6690381   0.1096838  )
        21           Mo  tau(  21) = (   0.5300192   1.0470394   0.2900995  )
        22           S   tau(  22) = (   0.3670346   0.9457522   0.4574073  )
        23           S   tau(  23) = (   0.3604225   0.9585725   0.1159032  )
        24           Mo  tau(  24) = (   0.0313099   0.1847895   0.3013130  )
        25           S   tau(  25) = (   0.1956761   0.0838230   0.4650863  )
        26           S   tau(  26) = (   0.1967693   0.0903508   0.1278874  )
        27           Mo  tau(  27) = (   0.1967578   0.4753919   0.2813011  )
        28           S   tau(  28) = (   0.0287851   0.3864324   0.4586755  )
        29           S   tau(  29) = (   0.0244514   0.3729871   0.1239344  )
        30           Mo  tau(  30) = (   0.0286728   0.7631204   0.2856894  )
        31           S   tau(  31) = (   0.2011512   0.6675435   0.4465001  )
        32           S   tau(  32) = (   0.1969214   0.6672839   0.1104564  )
        33           Mo  tau(  33) = (   0.1950294   1.0511147   0.2932237  )
        34           S   tau(  34) = (   0.0312912   0.9612169   0.4667423  )
        35           S   tau(  35) = (   0.0292670   0.9563028   0.1216485  )
        36           O   tau(  36) = (   0.6666667   0.5136314   0.5407634  )

     number of k points=     1  Gaussian smearing, width (Ry)=  0.0100
                       cart. coord. in units 2pi/alat
        k(    1) = (   0.0000000   0.0000000   0.0000000), wk =   2.0000000

     Initial potential from superposition of free atoms

     starting charge     311.9873, renormalised to     312.0000

     negative rho (up, down):  2.725E-04 0.000E+00

Carrying out rVV10 run using the following parameters:
Nqs =      20    Nr_points =    1024   r_max =   100.000
b_value =  6.30000    beta =  0.00901
     q_mesh =  0.00010000  0.00030000  0.00058939  0.00100810
               0.00161396  0.00249058  0.00375900  0.00559430
               0.00824984  0.01209221  0.01765183  0.02569619
               0.03733578  0.05417739  0.07854596  0.11380545
               0.16482331  0.23864234  0.34545298  0.50000000

Gradients computed in Reciprocal space

     Starting wfcs are  216 randomized atomic wfcs
     Checking if some PAW data can be deallocated...

     Self-consistent Calculation

     iteration #  1     ecut=    80.00 Ry     beta= 0.70
     Davidson diagonalization with overlap
     ethr =  1.00E-02,  avg # of iterations =  2.0

     Threshold (ethr) on eigenvalues was too large:
     Diagonalizing with lowered threshold

     Davidson diagonalization with overlap
     ethr =  4.66E-04,  avg # of iterations =  4.0

[...]

     total energy              =   -2246.22981955 Ry
     estimated scf accuracy    <       1.69906377 Ry

[...]

     End of self-consistent calculation

          k = 0.0000 0.0000 0.0000 (105382 PWs)   bands (ev):

   -63.0943 -62.9197 -62.9161 -62.8864 -62.8704 -62.8675 -62.8176 -62.7890
   -62.7509 -62.7509 -62.7190 -62.6755 -37.3880 -37.2665 -37.2418 -37.2144
   -37.1748 -37.1620 -37.1548 -37.1282 -37.1151 -37.1026 -37.0858 -37.0686
   -37.0683 -37.0573 -37.0464 -37.0427 -37.0225 -37.0144 -37.0046 -36.9903
   -36.9737 -36.9521 -36.9472 -36.9367 -36.9151 -36.9108 -36.8998 -36.8859
   -36.8804 -36.8680 -36.8561 -36.8298 -36.8238 -36.7904 -36.7420 -36.6427
   -24.5529 -15.9732 -15.1723 -15.1495 -14.9656 -14.9488 -14.7877 -14.5361
   -14.4904 -14.4705 -14.4100 -14.3745 -14.3560 -14.3286 -14.2654 -14.1495
   -14.1304 -14.1271 -14.0662 -13.9288 -13.8622 -13.8591 -13.8198 -13.5021
    -8.6872  -8.4833  -8.0290  -7.6100  -7.4413  -7.3059  -7.2708  -7.2182
    -7.1997  -7.0792  -7.0608  -6.8182  -6.7862  -6.7273  -6.6552  -6.5987
    -6.4989  -6.4396  -6.3678  -6.3113  -6.1846  -6.1144  -5.9477  -5.9333
    -5.8314  -5.8047  -5.7681  -5.7361  -5.6828  -5.6654  -5.6286  -5.6083
    -5.5283  -5.4507  -5.4472  -5.3502  -5.2212  -5.2033  -5.0984  -5.0172
    -5.0008  -4.9774  -4.9047  -4.8568  -4.6892  -4.6406  -4.4656  -4.3518
    -4.2611  -4.2434  -4.1879  -4.1156  -4.0162  -3.9702  -3.9139  -3.8295
    -3.7494  -3.7008  -3.6518  -3.6091  -3.5781  -3.5254  -3.5061  -3.4878
    -3.4204  -3.3908  -3.3336  -3.2223  -3.1706  -2.9772  -2.8888  -2.8557
    -2.8037  -2.7666  -2.7138  -2.6852  -2.6621  -2.6285  -2.5198  -2.4302
    -2.2397  -2.0296  -1.9527  -1.6330  -1.0891  -0.7616  -0.5213  -0.2220
    -0.1408  -0.0967  -0.0677   0.0301   0.1230   0.1537   0.2287   0.2407
     0.2666   0.3985   0.4268   0.5079   0.5311   0.5384   0.5762   0.6093
     0.6834   0.7192   0.7312   0.7832   0.8143   0.8391   0.8590   0.9286
     0.9813   1.0511   1.2272

     the Fermi energy is    -1.3611 ev

!    total energy              =   -2246.24782578 Ry
     estimated scf accuracy    <       0.00000099 Ry
     smearing contrib. (-TS)   =      -0.00020765 Ry
     internal energy E=F+TS    =   -2246.24761813 Ry

     The total energy is F=E-TS. E is the sum of the following terms:
     one-electron contribution =  -18487.20132861 Ry
     hartree contribution      =    9232.02929580 Ry
     xc contribution           =    -392.31155896 Ry
     ewald contribution        =    7411.08529658 Ry
[...]
     atom    3 type  2   force =     0.14177451   -0.15120925  -38.19692939
     atom    4 type  1   force =     0.83797299    0.82074756   -3.87778838
     atom    5 type  2   force =    -0.87337698    1.02111984   28.07375719
     atom    6 type  2   force =     0.17072544   -0.44437262  -38.57347701
     atom    7 type  1   force =    -2.68835221   -0.93189884    1.10502826
     atom    8 type  2   force =    -0.59518057    1.24367979   37.48258728
     atom    9 type  2   force =     0.32704082    0.19184597  -38.76459556
     atom   10 type  1   force =    -0.33704730   -0.90594178    2.59199961
     atom   11 type  2   force =    -0.47304972   -1.37559711   38.26983999
     atom   12 type  2   force =     0.21257411    0.39253320  -38.17779526
     atom   13 type  1   force =    -0.46923923    0.04338562    1.73915504
     atom   14 type  2   force =    -0.55325866   -1.02545524   38.08614947
     atom   15 type  2   force =    -0.11685305   -0.21495603  -38.16084546
     atom   16 type  1   force =    -0.52963869    3.77591800   -2.28800711
     atom   17 type  2   force =    -0.26075399    1.12118097   37.72823244
     atom   18 type  2   force =    -0.26670069   -0.53593696  -38.88567085
     atom   19 type  1   force =     2.37510778   -1.08968149    0.35434972
     atom   20 type  2   force =     0.06495665    0.18626120  -39.61565616
     atom   21 type  1   force =    -0.18778016   -0.73129743    0.45490766
     atom   22 type  2   force =     0.38586566   -1.47170789   38.32051935
     atom   23 type  2   force =    -0.20517480    0.43205281  -38.35561531
     atom   24 type  1   force =     0.58915504   -0.09108452    1.26305157
     atom   25 type  2   force =     0.19444318   -0.23387081   38.69579172
     atom   26 type  2   force =    -0.03006987   -0.16779322  -37.74434421
     atom   27 type  1   force =    -0.08695256    0.46466224   -1.09138568
     atom   28 type  2   force =     0.97549312    0.47086022   37.37171506
     atom   29 type  2   force =     0.05240932   -0.24914932  -38.39012248
     atom   30 type  1   force =     0.26007038   -0.08440916    0.59141042
     atom   31 type  2   force =     1.12195679    0.47325107   37.82624930
     atom   32 type  2   force =    -0.40877373    0.09205555  -38.62936279
     atom   33 type  1   force =     0.46237145   -0.44623788    2.75382386
     atom   34 type  2   force =     0.13973836   -0.51527937   38.80850367
     atom   35 type  2   force =     0.03567993    0.23782742  -37.87695304
     atom   36 type  3   force =    -0.52605157    1.14013462   49.97556019
     The local contribution  to forces
     atom    1 type  1   force =     0.12274901    0.54076500    1.26698350
     atom    2 type  2   force =    -0.38412438    0.87877342  -38.16036756
     atom    3 type  2   force =    -0.13842082    0.16024209   37.95147073
     atom    4 type  1   force =    -0.82851286   -0.81869539    3.85431350
     atom    5 type  2   force =     0.86029599   -1.02587756  -28.36302261
     atom    6 type  2   force =    -0.17022805    0.44745115   38.31732413
     atom    7 type  1   force =     2.69998116    0.93157670   -1.08156633
     atom    8 type  2   force =     0.58912532   -1.24387886  -37.23321546
     atom    9 type  2   force =    -0.32164139   -0.17771269   38.51511080
     atom   10 type  1   force =     0.32849290    0.90181281   -2.59188885
     atom   11 type  2   force =     0.46733029    1.37498893  -38.02944747
     atom   12 type  2   force =    -0.20300052   -0.37820189   37.93218973
     atom   13 type  1   force =     0.46796929   -0.06857572   -1.73229687
     atom   14 type  2   force =     0.55313741    1.03468160  -37.83414951
     atom   15 type  2   force =     0.11585329    0.22447580   37.91986464
     atom   16 type  1   force =     0.52081997   -3.79779843    2.30909703
     atom   17 type  2   force =     0.26009941   -1.10513992  -37.48959118
     atom   18 type  2   force =     0.26759891    0.53667571   38.64567663
     atom   19 type  1   force =    -2.39287507    1.07733182   -0.33543261
     atom   20 type  2   force =    -0.06381033   -0.17364063   39.37481725
     atom   21 type  1   force =     0.18933622    0.70675391   -0.45813735
     atom   22 type  2   force =    -0.38045634    1.47119375  -38.08023816
     atom   23 type  2   force =     0.19783612   -0.41623112   38.11395525
     atom   24 type  1   force =    -0.58676396    0.07615078   -1.26115363
     atom   25 type  2   force =    -0.19417294    0.24335384  -38.44747592
     atom   26 type  2   force =     0.02695650    0.17621018   37.49631879
     atom   27 type  1   force =     0.08792467   -0.47467225    1.07846994
     atom   28 type  2   force =    -0.97661161   -0.46395654  -37.11369029
     atom   29 type  2   force =    -0.05325189    0.25562053   38.14504443
     atom   30 type  1   force =    -0.26084078    0.06463210   -0.59828650
     atom   31 type  2   force =    -1.11372889   -0.47361630  -37.57644217
     atom   32 type  2   force =     0.40139391   -0.07601574   38.38086048
     atom   33 type  1   force =    -0.46055706    0.44008592   -2.75575361
     atom   34 type  2   force =    -0.13822124    0.52259615  -38.55456084
     atom   35 type  2   force =    -0.03617711   -0.22291317   37.63155724
     atom   36 type  3   force =     0.52771790   -1.11142641  -47.68047437
     The core correction contribution to forces
     atom    1 type  1   force =     0.00000000    0.00000000    0.00000000
     atom    2 type  2   force =     0.00004827    0.00048782    0.02125514
     atom    3 type  2   force =     0.00030078    0.00032712   -0.02090954
     atom    4 type  1   force =     0.00000000    0.00000000    0.00000000
     atom    5 type  2   force =    -0.00086460   -0.00023058   -0.00989225
     atom    6 type  2   force =     0.00007374   -0.00039950   -0.02126005
     atom    7 type  1   force =     0.00000000    0.00000000    0.00000000
     atom    8 type  2   force =    -0.00032916    0.00022972    0.02119498
     atom    9 type  2   force =     0.00049528    0.00080237   -0.02102969
     atom   10 type  1   force =     0.00000000    0.00000000    0.00000000
     atom   11 type  2   force =    -0.00011530   -0.00028617    0.02070363
     atom   12 type  2   force =     0.00082186    0.00108609   -0.02086021
     atom   13 type  1   force =     0.00000000    0.00000000    0.00000000
     atom   14 type  2   force =    -0.00006714    0.00015420    0.02131957
     atom   15 type  2   force =    -0.00017592    0.00046117   -0.02067828
     atom   16 type  1   force =     0.00000000    0.00000000    0.00000000
     atom   17 type  2   force =     0.00011034    0.00077988    0.02087228
     atom   18 type  2   force =    -0.00008743   -0.00058364   -0.02077668
     atom   19 type  1   force =     0.00000000    0.00000000    0.00000000
     atom   20 type  2   force =     0.00019051    0.00069695   -0.02117517
     atom   21 type  1   force =     0.00000000    0.00000000    0.00000000
     atom   22 type  2   force =     0.00014326   -0.00045124    0.02075668
     atom   23 type  2   force =    -0.00064936    0.00118595   -0.02080947
     atom   24 type  1   force =     0.00000000    0.00000000    0.00000000
     atom   25 type  2   force =     0.00001649    0.00040108    0.02097878
     atom   26 type  2   force =    -0.00014204    0.00030926   -0.02093431
     atom   27 type  1   force =     0.00000000    0.00000000    0.00000000
     atom   28 type  2   force =    -0.00011143    0.00065835    0.02151671
     atom   29 type  2   force =    -0.00006343    0.00010259   -0.02066111
     atom   30 type  1   force =     0.00000000    0.00000000    0.00000000
     atom   31 type  2   force =     0.00043809    0.00033585    0.02110792
     atom   32 type  2   force =    -0.00079713    0.00077837   -0.02101458
     atom   33 type  1   force =     0.00000000    0.00000000    0.00000000
     atom   34 type  2   force =     0.00014995    0.00019132    0.02134777
     atom   35 type  2   force =     0.00002057    0.00099919   -0.02097040
     atom   36 type  3   force =     0.00000330    0.00027197    0.02460354
     The Hubbard contrib.    to forces
     atom    1 type  1   force =     0.00000000    0.00000000    0.00000000
     atom    2 type  2   force =     0.00000000    0.00000000    0.00000000
     atom    3 type  2   force =     0.00000000    0.00000000    0.00000000
     atom    4 type  1   force =     0.00000000    0.00000000    0.00000000
     atom    5 type  2   force =     0.00000000    0.00000000    0.00000000
     atom    6 type  2   force =     0.00000000    0.00000000    0.00000000
     atom    7 type  1   force =     0.00000000    0.00000000    0.00000000
     atom    8 type  2   force =     0.00000000    0.00000000    0.00000000
     atom    9 type  2   force =     0.00000000    0.00000000    0.00000000
     atom   10 type  1   force =     0.00000000    0.00000000    0.00000000
     atom   11 type  2   force =     0.00000000    0.00000000    0.00000000
     atom   12 type  2   force =     0.00000000    0.00000000    0.00000000
     atom   13 type  1   force =     0.00000000    0.00000000    0.00000000
     atom   14 type  2   force =     0.00000000    0.00000000    0.00000000
     atom   15 type  2   force =     0.00000000    0.00000000    0.00000000
     atom   16 type  1   force =     0.00000000    0.00000000    0.00000000
     atom   17 type  2   force =     0.00000000    0.00000000    0.00000000
     atom   18 type  2   force =     0.00000000    0.00000000    0.00000000
     atom   19 type  1   force =     0.00000000    0.00000000    0.00000000
     atom   20 type  2   force =     0.00000000    0.00000000    0.00000000
     atom   21 type  1   force =     0.00000000    0.00000000    0.00000000
     atom   22 type  2   force =     0.00000000    0.00000000    0.00000000
     atom   23 type  2   force =     0.00000000    0.00000000    0.00000000
     atom   24 type  1   force =     0.00000000    0.00000000    0.00000000
     atom   25 type  2   force =     0.00000000    0.00000000    0.00000000
     atom   26 type  2   force =     0.00000000    0.00000000    0.00000000
     atom   27 type  1   force =     0.00000000    0.00000000    0.00000000
     atom   28 type  2   force =     0.00000000    0.00000000    0.00000000
     atom   29 type  2   force =     0.00000000    0.00000000    0.00000000
     atom   30 type  1   force =     0.00000000    0.00000000    0.00000000
     atom   31 type  2   force =     0.00000000    0.00000000    0.00000000
     atom   32 type  2   force =     0.00000000    0.00000000    0.00000000
     atom   33 type  1   force =     0.00000000    0.00000000    0.00000000
     atom   34 type  2   force =     0.00000000    0.00000000    0.00000000
     atom   35 type  2   force =     0.00000000    0.00000000    0.00000000
     atom   36 type  3   force =     0.00000000    0.00000000    0.00000000
     The SCF correction term to forces
     atom    1 type  1   force =     0.00001073   -0.00008065    0.00002345
     atom    2 type  2   force =    -0.00000655   -0.00002715    0.00000394
     atom    3 type  2   force =    -0.00000316   -0.00001552    0.00001553
     atom    4 type  1   force =     0.00003385   -0.00000109   -0.00004605
     atom    5 type  2   force =     0.00000574   -0.00002886   -0.00000147
     atom    6 type  2   force =     0.00000410   -0.00000095   -0.00001796
     atom    7 type  1   force =    -0.00000471    0.00006067   -0.00002219
     atom    8 type  2   force =     0.00000074    0.00002245    0.00000234
     atom    9 type  2   force =     0.00000306    0.00000948   -0.00002130
     atom   10 type  1   force =    -0.00001319    0.00001185    0.00003483
     atom   11 type  2   force =     0.00000491    0.00002975    0.00000724
     atom   12 type  2   force =     0.00000054    0.00000523    0.00000433
     atom   13 type  1   force =    -0.00000251   -0.00005674    0.00001257
     atom   14 type  2   force =     0.00000861   -0.00002346    0.00000791
     atom   15 type  2   force =     0.00000288   -0.00001476    0.00000733
     atom   16 type  1   force =    -0.00001537    0.00001136   -0.00005226
     atom   17 type  2   force =    -0.00001287   -0.00002015    0.00000557
     atom   18 type  2   force =    -0.00001265    0.00000218   -0.00001949
     atom   19 type  1   force =    -0.00001444    0.00006048   -0.00002767
     atom   20 type  2   force =    -0.00000326    0.00001870   -0.00002920
     atom   21 type  1   force =     0.00000531    0.00000196    0.00002160
     atom   22 type  2   force =     0.00000415    0.00002523    0.00000718
     atom   23 type  2   force =    -0.00000003    0.00000168   -0.00000351
     atom   24 type  1   force =    -0.00000056   -0.00005582    0.00001232
     atom   25 type  2   force =    -0.00000397   -0.00002497    0.00001196
     atom   26 type  2   force =    -0.00000015   -0.00001470    0.00000294
     atom   27 type  1   force =     0.00000208   -0.00000494   -0.00004079
     atom   28 type  2   force =     0.00000000   -0.00001951   -0.00000074
     atom   29 type  2   force =     0.00000442    0.00000554   -0.00001145
     atom   30 type  1   force =     0.00000199    0.00005176   -0.00002967
     atom   31 type  2   force =     0.00000191    0.00001532    0.00000187
     atom   32 type  2   force =     0.00000248    0.00000584   -0.00002642
     atom   33 type  1   force =    -0.00001232    0.00001207    0.00002264
     atom   34 type  2   force =    -0.00000335    0.00002929    0.00000601
     atom   35 type  2   force =     0.00000300    0.00000414    0.00000209
     atom   36 type  3   force =    -0.00000008   -0.00003189    0.00005056

     Total force =     0.006654     Total SCF correction =     0.000230
     Energy error            =      9.2E-05 Ry
     Gradient error          =      1.7E-03 Ry/Bohr

     bfgs converged in  26 scf cycles and  25 bfgs steps
     (criteria: energy <  1.0E-04 Ry, force <  1.0E-02 Ry/Bohr)

     End of BFGS Geometry Optimization

     Final energy             =   -2246.4442176987 Ry

     File ./MoS2-V-O.bfgs deleted, as requested
Begin final coordinates

ATOMIC_POSITIONS (angstrom)
Mo            6.5636182515        1.7502160688        2.7446241136
S             8.1339489253        0.8792222504        4.3758415237
S             8.1599295855        0.8565079026        1.1676242986
Mo            8.1378196528        4.5462319967        2.6860617956
S             6.5215929544        3.6813596919        4.2061563085
S             6.5483817287        3.5860617393        1.1200530007
Mo            6.5021333095        7.2175386500        2.6610558702
S             8.0706446037        6.3351954565        4.2947270719
S             8.1237631650        6.3777246035        1.0909537957
Mo            8.1424058024        9.9684534708        2.7759503549
S             6.5124970947        8.9759881932        4.3233001584
S             6.5877743858        9.0740957017        1.1337219468
Mo            3.4275090435        1.8020973670        2.7652948315
S             4.9886865712        0.8476619150        4.3496979046
S             4.9759791018        0.8659804345        1.1619297748
Mo            4.9611038250        4.5992448936        2.6319015983
S             3.4724712163        3.7302124093        4.3114870216
S             3.4278818903        3.5873036553        1.0936291168
Mo            3.4510557894        7.2159741295        2.6396155859
S             4.9844995787        6.3688547531        1.0126634283
Mo            4.9824000027        9.9421774798        2.7313211203
S             3.4618296364        8.9639249854        4.3163159817
S             3.3877410006        9.0764961615        1.1205343155
Mo            0.2626802962        1.7788163524        2.7687145842
S             1.8540319640        0.8902119004        4.3745193945
S             1.8491471086        0.8772200781        1.1849960548
Mo            1.8690949957        4.5265007926        2.6991703880
S             0.2594954087        3.6569852588        4.3027105603
S             0.2717718349        3.5849933232        1.1322322789
Mo            0.2518133538        7.2519370451        2.7235257130
S             1.8941827707        6.3421588501        4.2830407325
S             1.8267713510        6.3590969988        1.0912108903
Mo            1.8494105495        9.9707647213        2.7741915709
S             0.2683957661        9.0503233048        4.3651015628
S             0.2676209376        9.0934493894        1.1720263269
O             6.5267702267        3.7072533751        5.7048466014
End final coordinates

     Writing all to output data dir ./MoS2-V-O.save/

     General routines

     Parallel routines

   This run was terminated on:  17:35:45   1Nov2023

   JOB DONE.