     Program PWSCF v.7.2 starts on  4Nov2023 at  1: 9:46

     Waiting for input...
     Reading input from standard input
Warning: card &CELL ignored
Warning: card CELL_DYNAMICS = 'BFGS', ignored
Warning: card CELL_DOFREE = '2DXY' ignored
Warning: card / ignored

     Current dimensions of program PWSCF are:
     Max number of different atomic species (ntypx) = 10
     Max number of k-points (npk) =  40000
     Max angular momentum in pseudopotentials (lmaxx) =  4

     IMPORTANT: XC functional enforced from input :
     Exchange-correlation= RVV10
                           (   1   4  13   4  26   0   0)
     Any further DFT definition will be discarded
     Please, verify this is what you really want

     gamma-point specific algorithms are used
     signal trapping enabled: kill the code with -SIGUSR1 to stop cleanly the simulation

     R & G space division:  proc/nbgrp/npool/nimage =      48
     Subspace diagonalization in iterative solution of the eigenvalue problem:
     one sub-group per band group will be used

     Using Slab Decomposition

     bravais-lattice index     =            0
     lattice parameter (alat)  =      17.8707  a.u.
     unit-cell volume          =   17436.2743 (a.u.)^3
     number of atoms/cell      =           36
     number of atomic types    =            3
     number of electrons       =       307.00
     number of Kohn-Sham states=          185
     kinetic-energy cutoff     =      80.0000  Ry
     charge density cutoff     =     400.0000  Ry
     scf convergence threshold =      1.0E-06
     mixing beta               =       0.7000
     number of iterations used =            8  local-TF  mixing
     energy convergence thresh.=      1.0E-04
     force convergence thresh. =      1.0E-02
     Exchange-correlation= RVV10
                           (   1   4  13   4  26   0   0)
     nstep                     =          200

     celldm(1)=  17.870686  celldm(2)=   0.000000  celldm(3)=   0.000000
     celldm(4)=   0.000000  celldm(5)=   0.000000  celldm(6)=   0.000000

     crystal axes: (cart. coord. in units of alat)
               a(1) = (   1.000000   0.000000   0.000000 )
               a(2) = (   0.000000   1.155671   0.000000 )
               a(3) = (   0.000000   0.000000   2.643601 )

     reciprocal axes: (cart. coord. in units 2 pi/alat)
               b(1) = (  1.000000  0.000000  0.000000 )
               b(2) = (  0.000000  0.865298  0.000000 )
               b(3) = (  0.000000  0.000000  0.378272 )

     PseudoPot. # 1 for Mo read from file:
     ../pseudo/Mo_ONCV_PBE-1.0.oncvpsp.upf
     MD5 check sum: 1b5d28e075c9ccadda658a603575cd1f
     Pseudo is Norm-conserving, Zval = 14.0
     Generated using ONCVPSP code by D. R. Hamann
     Using radial grid of 1526 points,  6 beta functions with:
                l(1) =   0
                l(2) =   0
                l(3) =   1
                l(4) =   1
                l(5) =   2
                l(6) =   2

     PseudoPot. # 2 for S  read from file:
     ../pseudo/s_pbe_v1.4.uspp.F.UPF
     MD5 check sum: 88d86576ff6df21479756cfb9bdac1df
     Pseudo is Ultrasoft + core correction, Zval =  6.0
     Generated by new atomic code, or converted to UPF format
     Using radial grid of  907 points,  6 beta functions with:
                l(1) =   0
                l(2) =   0
                l(3) =   1
                l(4) =   1
                l(5) =   2
                l(6) =   2
     Q(r) pseudized with  8 coefficients,  rinner =    1.300   1.300   1.300
                                                       1.300   1.300

     PseudoPot. # 3 for H  read from file:
     ../pseudo/H_ONCV_PBE-1.0.oncvpsp.upf
     MD5 check sum: 1790becc920ee074925cf490c71280fe
     Pseudo is Norm-conserving, Zval =  1.0
     Generated using ONCVPSP code by D. R. Hamann
     Using radial grid of 1166 points,  2 beta functions with:
                l(1) =   0
                l(2) =   0

     atomic species   valence    mass     pseudopotential
        Mo            14.00    95.94000     Mo( 1.00)
        S              6.00    32.06500     S ( 1.00)
        H              1.00     1.00794     H ( 1.00)

     No symmetry found

   Cartesian axes

     site n.     atom                  positions (alat units)
         1           Mo  tau(   1) = (   0.6952221   0.1890506   0.2985846  )
         2           S   tau(   2) = (   0.8646417   0.0856217   0.4689279  )
         3           S   tau(   3) = (   0.8663890   0.0857843   0.1351291  )
         4           Mo  tau(   4) = (   0.8560186   0.4753274   0.2873942  )
         5           S   tau(   5) = (   0.6873294   0.3936244   0.4596353  )
         6           S   tau(   6) = (   0.6929804   0.3713468   0.1185692  )
         7           Mo  tau(   7) = (   0.6862796   0.7633098   0.2825370  )
         8           S   tau(   8) = (   0.8545980   0.6708292   0.4486168  )
         9           S   tau(   9) = (   0.8545123   0.6666874   0.1146125  )
        10           Mo  tau(  10) = (   0.8629403   1.0471007   0.3006803  )
        11           S   tau(  11) = (   0.6868280   0.9456650   0.4634891  )
        12           S   tau(  12) = (   0.6998113   0.9568511   0.1205389  )
        13           Mo  tau(  13) = (   0.3618216   0.1847309   0.2935964  )
        14           S   tau(  14) = (   0.5260962   0.0863870   0.4600448  )
        15           S   tau(  15) = (   0.5348379   0.0894875   0.1297123  )
        16           Mo  tau(  16) = (   0.5265817   0.4772436   0.2784130  )
        17           S   tau(  17) = (   0.3624753   0.3882513   0.4525556  )
        18           S   tau(  18) = (   0.3635411   0.3752055   0.1119148  )
        19           Mo  tau(  19) = (   0.3652268   0.7630864   0.2781795  )
        20           S   tau(  20) = (   0.5269494   0.6690381   0.1096838  )
        21           Mo  tau(  21) = (   0.5300192   1.0470394   0.2900995  )
        22           S   tau(  22) = (   0.3670346   0.9457522   0.4574073  )
        23           S   tau(  23) = (   0.3604225   0.9585725   0.1159032  )
        24           Mo  tau(  24) = (   0.0313099   0.1847895   0.3013130  )
        25           S   tau(  25) = (   0.1956761   0.0838230   0.4650863  )
        26           S   tau(  26) = (   0.1967693   0.0903508   0.1278874  )
        27           Mo  tau(  27) = (   0.1967578   0.4753919   0.2813011  )
        28           S   tau(  28) = (   0.0287851   0.3864324   0.4586755  )
        29           S   tau(  29) = (   0.0244514   0.3729871   0.1239344  )
        30           Mo  tau(  30) = (   0.0286728   0.7631204   0.2856894  )
        31           S   tau(  31) = (   0.2011512   0.6675435   0.4465001  )
        32           S   tau(  32) = (   0.1969214   0.6672839   0.1104564  )
        33           Mo  tau(  33) = (   0.1950294   1.0511147   0.2932237  )
        34           S   tau(  34) = (   0.0312912   0.9612169   0.4667423  )
        35           S   tau(  35) = (   0.0292670   0.9563028   0.1216485  )
        36           H   tau(  36) = (   0.8888889   0.3852236   0.5407634  )

     number of k points=     1  Gaussian smearing, width (Ry)=  0.0100
                       cart. coord. in units 2pi/alat
        k(    1) = (   0.0000000   0.0000000   0.0000000), wk =   2.0000000

     Initial potential from superposition of free atoms

     starting charge     306.9873, renormalised to     307.0000

     negative rho (up, down):  1.417E-04 0.000E+00

Carrying out rVV10 run using the following parameters:
Nqs =      20    Nr_points =    1024   r_max =   100.000
b_value =  6.30000    beta =  0.00901
     q_mesh =  0.00010000  0.00030000  0.00058939  0.00100810
               0.00161396  0.00249058  0.00375900  0.00559430
               0.00824984  0.01209221  0.01765183  0.02569619
               0.03733578  0.05417739  0.07854596  0.11380545
               0.16482331  0.23864234  0.34545298  0.50000000

Gradients computed in Reciprocal space

     Starting wfcs are  213 randomized atomic wfcs

     Self-consistent Calculation

     iteration #  1     ecut=    80.00 Ry     beta= 0.70
     Davidson diagonalization with overlap
     ethr =  1.00E-02,  avg # of iterations =  2.0

     Threshold (ethr) on eigenvalues was too large:
     Diagonalizing with lowered threshold

     Davidson diagonalization with overlap
     ethr =  3.75E-04,  avg # of iterations =  4.0

[...]

     total energy              =   -2205.60174262 Ry
     estimated scf accuracy    <       1.43791233 Ry

[...]

     End of self-consistent calculation

          k = 0.0000 0.0000 0.0000 (105382 PWs)   bands (ev):

   -62.8745 -62.8565 -62.8481 -62.8396 -62.8267 -62.8194 -62.8148 -62.7885
   -62.7778 -62.7437 -62.6886 -62.6525 -37.2126 -37.1504 -37.1374 -37.1272
   -37.1117 -37.0815 -37.0774 -37.0680 -37.0567 -37.0517 -37.0428 -37.0338
   -37.0242 -37.0154 -37.0055 -37.0006 -36.9980 -36.9934 -36.9837 -36.9718
   -36.9426 -36.9301 -36.9161 -36.9126 -36.8966 -36.8786 -36.8686 -36.8614
   -36.8557 -36.8375 -36.8273 -36.8217 -36.8071 -36.7946 -36.6799 -36.6396
   -16.1160 -15.5397 -15.1066 -15.0347 -14.9560 -14.8185 -14.6900 -14.5190
   -14.4714 -14.4173 -14.4026 -14.3412 -14.3061 -14.2707 -14.1871 -14.1477
   -14.0950 -14.0894 -14.0021 -13.9228 -13.8230 -13.7937 -13.7775  -8.6516
    -7.6652  -7.4619  -7.3154  -7.2598  -7.2423  -7.1804  -7.1310  -6.9902
    -6.8393  -6.8055  -6.7637  -6.6756  -6.5903  -6.4979  -6.4481  -6.4248
    -6.2821  -6.2196  -6.1269  -5.9644  -5.9390  -5.9051  -5.8515  -5.7606
    -5.7445  -5.6948  -5.6711  -5.6492  -5.6263  -5.5953  -5.5298  -5.4354
    -5.4345  -5.3910  -5.1522  -5.1249  -5.0519  -5.0029  -4.9883  -4.9500
    -4.9189  -4.8247  -4.6609  -4.4978  -4.3964  -4.3081  -4.2750  -4.2383
    -4.1959  -4.1340  -4.0090  -3.8619  -3.7929  -3.7831  -3.7512  -3.7037
    -3.6932  -3.5960  -3.5409  -3.4985  -3.4834  -3.4564  -3.4403  -3.3760
    -3.3328  -3.2048  -3.1297  -2.9018  -2.8686  -2.7804  -2.7685  -2.7182
    -2.6973  -2.6437  -2.6302  -2.5945  -2.5474  -2.2760  -2.0397  -1.9882
    -1.8801  -0.8758  -0.7365  -0.6235  -0.1710  -0.1123  -0.0804  -0.0023
     0.0246   0.1341   0.1833   0.2456   0.2805   0.3220   0.3337   0.4208
     0.4871   0.5232   0.5677   0.6276   0.6519   0.6956   0.7324   0.7653
     0.7919   0.8126   0.8648   0.9243   0.9727   0.9920   1.0225   1.3222
     1.4392

     the Fermi energy is    -0.8899 ev

!    total energy              =   -2205.53152517 Ry
     estimated scf accuracy    <       0.00000064 Ry
     smearing contrib. (-TS)   =      -0.00728600 Ry
     internal energy E=F+TS    =   -2205.52423918 Ry

     The total energy is F=E-TS. E is the sum of the following terms:
     one-electron contribution =  -18054.29253197 Ry
     hartree contribution      =    9014.00923874 Ry
     xc contribution           =    -385.31540716 Ry
     ewald contribution        =    7220.07446122 Ry

     convergence has been achieved in  15 iterations

[...]

     Forces acting on atoms (cartesian axes, Ry/au):

     atom    1 type  1   force =     0.01393146   -0.02233508    0.00631932
     atom    2 type  2   force =    -0.01475745    0.01784144    0.00225563
[...]
     atom    3 type  2   force =     0.17423463   -0.05168698  -37.33280386
     atom    4 type  1   force =     0.76337666    0.69787100    2.00834803
     atom    5 type  2   force =    -1.47432362    1.31860526   38.09469000
     atom    6 type  2   force =     0.39007918   -0.32661377  -38.06593740
     atom    7 type  1   force =    -2.51769347   -1.91549632    2.71492535
     atom    8 type  2   force =    -1.10022473    0.40592545   38.15095840
     atom    9 type  2   force =     0.35075218   -0.03311649  -37.63628421
     atom   10 type  1   force =    -0.32490959   -0.69953909    3.12326296
     atom   11 type  2   force =    -0.50766455   -1.47148076   38.53515270
     atom   12 type  2   force =     0.30661719    0.31830753  -37.81738804
     atom   13 type  1   force =    -0.13028900    0.65200892    2.11311332
     atom   14 type  2   force =    -0.16433953   -0.07248702   38.46532035
     atom   15 type  2   force =     0.03169552   -0.15835039  -37.50183232
     atom   16 type  1   force =     0.03744882    3.55727118    0.61023156
     atom   17 type  2   force =     0.55765457    1.23159309   37.85766586
     atom   18 type  2   force =    -0.12968870   -0.59538172  -38.62522834
     atom   19 type  1   force =     2.62641888   -1.91800276    1.96845941
     atom   20 type  2   force =     0.17602998    0.03575216  -38.70199115
     atom   21 type  1   force =     0.02504812   -0.23312575    1.01173228
     atom   22 type  2   force =     0.46998215   -1.51424470   38.59756002
     atom   23 type  2   force =    -0.23214511    0.47325539  -37.99428965
     atom   24 type  1   force =     0.75805013    1.01557364    4.27631513
     atom   25 type  2   force =     0.48246842    0.03592037   38.85451251
     atom   26 type  2   force =    -0.27746778   -0.01756551  -37.17747810
     atom   27 type  1   force =    -1.30107537   -0.42365481   -2.53323585
     atom   28 type  2   force =     1.89423013    1.63352540   37.90354248
     atom   29 type  2   force =    -0.18909013   -0.26136850  -36.81530796
     atom   30 type  1   force =    -0.13356523   -0.68763279    2.05555731
     atom   31 type  2   force =     1.21811562   -0.10225112   37.97625452
     atom   32 type  2   force =    -0.57901209    0.26104175  -38.42280126
     atom   33 type  1   force =     0.31335197   -0.39594777    3.39367893
     atom   34 type  2   force =     0.03657473   -0.60360435   38.81163319
     atom   35 type  2   force =    -0.07288008    0.19183566  -37.21341336
     atom   36 type  3   force =    -0.70785596   -0.28670877    8.30929004
     The local contribution  to forces
     atom    1 type  1   force =     0.34637589   -0.45533478   -2.15738243
     atom    2 type  2   force =     0.42694572    0.49851488  -38.61056561
     atom    3 type  2   force =    -0.16988944    0.06134050   37.08496072
     atom    4 type  1   force =    -0.76873791   -0.70529242   -2.00679690
     atom    5 type  2   force =     1.47049716   -1.29372466  -37.87729051
     atom    6 type  2   force =    -0.38422454    0.32766279   37.82057765
     atom    7 type  1   force =     2.53964633    1.91402517   -2.69397206
     atom    8 type  2   force =     1.09432613   -0.39976945  -37.91119199
     atom    9 type  2   force =    -0.34146486    0.04695665   37.38635540
     atom   10 type  1   force =     0.32238022    0.69575189   -3.12392076
     atom   11 type  2   force =     0.50038301    1.47383056  -38.29521864
     atom   12 type  2   force =    -0.29799376   -0.30473193   37.57429675
     atom   13 type  1   force =     0.12759399   -0.67682741   -2.10677421
     atom   14 type  2   force =     0.16407330    0.08093173  -38.21975500
     atom   15 type  2   force =    -0.03345780    0.16386691   37.25743238
     atom   16 type  1   force =    -0.03319417   -3.59105948   -0.58112037
     atom   17 type  2   force =    -0.56776311   -1.20264861  -37.63937154
     atom   18 type  2   force =     0.12923408    0.58755482   38.38089599
     atom   19 type  1   force =    -2.64017641    1.91906503   -1.94698537
     atom   20 type  2   force =    -0.17351280   -0.02150620   38.46020107
     atom   21 type  1   force =    -0.02314388    0.20920861   -1.01653829
     atom   22 type  2   force =    -0.46342206    1.50987076  -38.36024193
     atom   23 type  2   force =     0.22532710   -0.45989938   37.75180904
     atom   24 type  1   force =    -0.76169136   -1.03329924   -4.26887120
     atom   25 type  2   force =    -0.47737165   -0.02944100  -38.61261007
     atom   26 type  2   force =     0.27100828    0.02893623   36.93244283
     atom   27 type  1   force =     1.30479385    0.43006977    2.52133677
     atom   28 type  2   force =    -1.65798774   -1.48778977  -37.88417668
     atom   29 type  2   force =     0.18767882    0.26784889   36.56454322
     atom   30 type  1   force =     0.13317832    0.66888443   -2.05955155
     atom   31 type  2   force =    -1.21716290    0.08270466  -37.74129021
     atom   32 type  2   force =     0.57461894   -0.24653915   38.17589700
     atom   33 type  1   force =    -0.31367255    0.39259061   -3.39579757
     atom   34 type  2   force =    -0.03772979    0.61157012  -38.55971983
     atom   35 type  2   force =     0.07260550   -0.17651340   36.96848247
     atom   36 type  3   force =     0.67276435    0.26693961   -8.27012864
     The core correction contribution to forces
     atom    1 type  1   force =     0.00000000    0.00000000    0.00000000
     atom    2 type  2   force =    -0.00018889   -0.00016910    0.01989286
     atom    3 type  2   force =     0.00037475    0.00050530   -0.02098614
     atom    4 type  1   force =     0.00000000    0.00000000    0.00000000
     atom    5 type  2   force =    -0.00088571    0.00118325    0.01950793
     atom    6 type  2   force =     0.00057660   -0.00042144   -0.02087304
     atom    7 type  1   force =     0.00000000    0.00000000    0.00000000
     atom    8 type  2   force =    -0.00033024    0.00085903    0.02047348
     atom    9 type  2   force =     0.00069826    0.00062313   -0.02100181
     atom   10 type  1   force =     0.00000000    0.00000000    0.00000000
     atom   11 type  2   force =    -0.00021559   -0.00013859    0.02061325
     atom   12 type  2   force =     0.00076097    0.00103527   -0.02082392
     atom   13 type  1   force =     0.00000000    0.00000000    0.00000000
     atom   14 type  2   force =    -0.00009310    0.00006844    0.02073201
     atom   15 type  2   force =    -0.00005758    0.00034781   -0.02076363
     atom   16 type  1   force =     0.00000000    0.00000000    0.00000000
     atom   17 type  2   force =    -0.00048995    0.00145652    0.01973595
     atom   18 type  2   force =    -0.00005896   -0.00101189   -0.02086071
     atom   19 type  1   force =     0.00000000    0.00000000    0.00000000
     atom   20 type  2   force =     0.00012838    0.00066172   -0.02118090
     atom   21 type  1   force =     0.00000000    0.00000000    0.00000000
     atom   22 type  2   force =     0.00018606   -0.00053800    0.02055378
     atom   23 type  2   force =    -0.00066719    0.00102074   -0.02081440
     atom   24 type  1   force =     0.00000000    0.00000000    0.00000000
     atom   25 type  2   force =     0.00053949    0.00023094    0.02053929
     atom   26 type  2   force =    -0.00056518    0.00062816   -0.02085049
     atom   27 type  1   force =     0.00000000    0.00000000    0.00000000
     atom   28 type  2   force =     0.01630768    0.01000784    0.00318995
     atom   29 type  2   force =    -0.00037969   -0.00013470   -0.02107031
     atom   30 type  1   force =     0.00000000    0.00000000    0.00000000
     atom   31 type  2   force =     0.00022493   -0.00082555    0.02037204
     atom   32 type  2   force =    -0.00057398    0.00113345   -0.02090512
     atom   33 type  1   force =     0.00000000    0.00000000    0.00000000
     atom   34 type  2   force =    -0.00007090    0.00023228    0.02110892
     atom   35 type  2   force =    -0.00000566    0.00082910   -0.02084493
     atom   36 type  3   force =     0.00000000    0.00000000    0.00000000
     The Hubbard contrib.    to forces
     atom    1 type  1   force =     0.00000000    0.00000000    0.00000000
     atom    2 type  2   force =     0.00000000    0.00000000    0.00000000
     atom    3 type  2   force =     0.00000000    0.00000000    0.00000000
     atom    4 type  1   force =     0.00000000    0.00000000    0.00000000
     atom    5 type  2   force =     0.00000000    0.00000000    0.00000000
     atom    6 type  2   force =     0.00000000    0.00000000    0.00000000
     atom    7 type  1   force =     0.00000000    0.00000000    0.00000000
     atom    8 type  2   force =     0.00000000    0.00000000    0.00000000
     atom    9 type  2   force =     0.00000000    0.00000000    0.00000000
     atom   10 type  1   force =     0.00000000    0.00000000    0.00000000
     atom   11 type  2   force =     0.00000000    0.00000000    0.00000000
     atom   12 type  2   force =     0.00000000    0.00000000    0.00000000
     atom   13 type  1   force =     0.00000000    0.00000000    0.00000000
     atom   14 type  2   force =     0.00000000    0.00000000    0.00000000
     atom   15 type  2   force =     0.00000000    0.00000000    0.00000000
     atom   16 type  1   force =     0.00000000    0.00000000    0.00000000
     atom   17 type  2   force =     0.00000000    0.00000000    0.00000000
     atom   18 type  2   force =     0.00000000    0.00000000    0.00000000
     atom   19 type  1   force =     0.00000000    0.00000000    0.00000000
     atom   20 type  2   force =     0.00000000    0.00000000    0.00000000
     atom   21 type  1   force =     0.00000000    0.00000000    0.00000000
     atom   22 type  2   force =     0.00000000    0.00000000    0.00000000
     atom   23 type  2   force =     0.00000000    0.00000000    0.00000000
     atom   24 type  1   force =     0.00000000    0.00000000    0.00000000
     atom   25 type  2   force =     0.00000000    0.00000000    0.00000000
     atom   26 type  2   force =     0.00000000    0.00000000    0.00000000
     atom   27 type  1   force =     0.00000000    0.00000000    0.00000000
     atom   28 type  2   force =     0.00000000    0.00000000    0.00000000
     atom   29 type  2   force =     0.00000000    0.00000000    0.00000000
     atom   30 type  1   force =     0.00000000    0.00000000    0.00000000
     atom   31 type  2   force =     0.00000000    0.00000000    0.00000000
     atom   32 type  2   force =     0.00000000    0.00000000    0.00000000
     atom   33 type  1   force =     0.00000000    0.00000000    0.00000000
     atom   34 type  2   force =     0.00000000    0.00000000    0.00000000
     atom   35 type  2   force =     0.00000000    0.00000000    0.00000000
     atom   36 type  3   force =     0.00000000    0.00000000    0.00000000
     The SCF correction term to forces
     atom    1 type  1   force =    -0.00000137   -0.00002933   -0.00006936
     atom    2 type  2   force =     0.00000064   -0.00002446   -0.00004136
     atom    3 type  2   force =    -0.00000288   -0.00001309   -0.00000684
     atom    4 type  1   force =     0.00000422    0.00000086   -0.00008394
     atom    5 type  2   force =    -0.00000438   -0.00000172   -0.00004460
     atom    6 type  2   force =     0.00000312    0.00000187   -0.00001586
     atom    7 type  1   force =    -0.00001643    0.00003417   -0.00006315
     atom    8 type  2   force =    -0.00000882    0.00001690   -0.00004025
     atom    9 type  2   force =    -0.00001218    0.00000812   -0.00001677
     atom   10 type  1   force =    -0.00000539    0.00000108   -0.00005736
     atom   11 type  2   force =    -0.00000679    0.00000378   -0.00004051
     atom   12 type  2   force =    -0.00000388   -0.00000096   -0.00000400
     atom   13 type  1   force =    -0.00000255   -0.00002728   -0.00007144
     atom   14 type  2   force =     0.00000021   -0.00002295   -0.00003806
     atom   15 type  2   force =     0.00000198   -0.00001899   -0.00001024
     atom   16 type  1   force =    -0.00000161    0.00002913   -0.00006492
     atom   17 type  2   force =     0.00000165   -0.00000011   -0.00003948
     atom   18 type  2   force =     0.00000033   -0.00000514   -0.00001442
     atom   19 type  1   force =     0.00000986    0.00003439   -0.00005358
     atom   20 type  2   force =     0.00000615    0.00001327   -0.00000859
     atom   21 type  1   force =    -0.00000066   -0.00001379   -0.00005140
     atom   22 type  2   force =     0.00000127    0.00000320   -0.00003490
     atom   23 type  2   force =     0.00000257    0.00000248   -0.00000057
     atom   24 type  1   force =     0.00000813   -0.00003530   -0.00007997
     atom   25 type  2   force =    -0.00000165   -0.00002544   -0.00003609
     atom   26 type  2   force =     0.00000173   -0.00001521   -0.00000654
     atom   27 type  1   force =     0.00000523    0.00001622   -0.00006606
     atom   28 type  2   force =     0.00000051    0.00000424   -0.00005076
     atom   29 type  2   force =    -0.00000711    0.00000105   -0.00001338
     atom   30 type  1   force =     0.00000236    0.00003594   -0.00006264
     atom   31 type  2   force =     0.00001235    0.00001498   -0.00003098
     atom   32 type  2   force =     0.00001009    0.00000531   -0.00001275
     atom   33 type  1   force =     0.00000290   -0.00001146   -0.00005761
     atom   34 type  2   force =     0.00000667    0.00001387   -0.00003460
     atom   35 type  2   force =     0.00000197    0.00000824   -0.00000774
     atom   36 type  3   force =    -0.00000133   -0.00000205   -0.00000435

     Total force =     0.005680     Total SCF correction =     0.000289
     Energy error            =      8.6E-05 Ry
     Gradient error          =      2.0E-03 Ry/Bohr

     bfgs converged in  25 scf cycles and  24 bfgs steps
     (criteria: energy <  1.0E-04 Ry, force <  1.0E-02 Ry/Bohr)

     End of BFGS Geometry Optimization

     Final energy             =   -2205.5799540051 Ry

     File ./MoS2-V-O.bfgs deleted, as requested
Begin final coordinates

ATOMIC_POSITIONS (angstrom)
Mo            6.5551973449        1.7751993545        2.7547591798
S             8.1060461441        0.8530726275        4.3836757756
S             8.1511104849        0.8611728621        1.1845132654
Mo            8.1003717321        4.5122816632        2.7434655910
S             6.4831216184        3.6873160446        4.2973356348
S             6.5703472614        3.5778713165        1.1026378647
Mo            6.5019628467        7.2043244059        2.6645431884
S             8.0697084658        6.3416262106        4.3043134246
S             8.1323800449        6.3318891384        1.1190193622
Mo            8.1347009818        9.9516021329        2.7713323092
S             6.5124132085        8.9682195551        4.3214420999
S             6.5928468109        9.0519336943        1.1253769946
Mo            3.4133282502        1.7796627135        2.7423315322
S             4.9785700072        0.8398935112        4.3330118244
S             4.9913935617        0.8608228133        1.1590751316
Mo            4.9821080472        4.5503541200        2.6263728173
S             3.4416921356        3.6985766743        4.2607354999
S             3.4361161310        3.5605555034        1.0569094601
Mo            3.4669514145        7.2213885285        2.6430910634
S             4.9898880174        6.3402845380        1.0249505005
Mo            4.9904055029        9.9286166322        2.7215448448
S             3.4688740373        8.9635400616        4.3190371209
S             3.3905806712        9.0704931832        1.1127967654
Mo            0.2473612012        1.7593472490        2.8098497117
S             1.8637972111        0.8608823466        4.3768850353
S             1.8211560667        0.8646280155        1.1861882561
Mo            1.8977150936        4.5388537637        2.6268479411
S             0.1627419161        3.5794444102        4.4793211834
S             0.2465435976        3.5744888745        1.1785218506
Mo            0.2703010572        7.2134250351        2.7317669739
S             1.9162368120        6.3088517226        4.2777234198
S             1.8593697380        6.3592304087        1.0659969785
Mo            1.8479533040        9.9540110812        2.7723696011
S             0.2651323832        9.0252608727        4.3612693068
S             0.2624430608        9.0600243044        1.1805506392
H             8.7574897388        3.0947677083        5.4711854283
End final coordinates

     Writing all to output data dir ./MoS2-V-O.save/

     General routines

     Parallel routines

   This run was terminated on:   1:51: 4   4Nov2023

   JOB DONE.