     Program PWSCF v.7.2 starts on  4Nov2023 at 11:41: 2

     Waiting for input...
     Reading input from standard input
Warning: card &CELL ignored
Warning: card CELL_DYNAMICS = 'BFGS', ignored
Warning: card CELL_DOFREE = '2DXY' ignored
Warning: card / ignored

     Current dimensions of program PWSCF are:
     Max number of different atomic species (ntypx) = 10
     Max number of k-points (npk) =  40000
     Max angular momentum in pseudopotentials (lmaxx) =  4

     IMPORTANT: XC functional enforced from input :
     Exchange-correlation= RVV10
                           (   1   4  13   4  26   0   0)
     Any further DFT definition will be discarded
     Please, verify this is what you really want

     gamma-point specific algorithms are used
     signal trapping enabled: kill the code with -SIGUSR1 to stop cleanly the simulation

     R & G space division:  proc/nbgrp/npool/nimage =      48
     Subspace diagonalization in iterative solution of the eigenvalue problem:
     one sub-group per band group will be used

     Using Slab Decomposition

     bravais-lattice index     =            0
     lattice parameter (alat)  =      17.8707  a.u.
     unit-cell volume          =   17436.2743 (a.u.)^3
     number of atoms/cell      =           36
     number of atomic types    =            3
     number of electrons       =       307.00
     number of Kohn-Sham states=          185
     kinetic-energy cutoff     =      80.0000  Ry
     charge density cutoff     =     400.0000  Ry
     scf convergence threshold =      1.0E-06
     mixing beta               =       0.7000
     number of iterations used =            8  local-TF  mixing
     energy convergence thresh.=      1.0E-04
     force convergence thresh. =      1.0E-02
     Exchange-correlation= RVV10
                           (   1   4  13   4  26   0   0)
     nstep                     =          200

     celldm(1)=  17.870686  celldm(2)=   0.000000  celldm(3)=   0.000000
     celldm(4)=   0.000000  celldm(5)=   0.000000  celldm(6)=   0.000000

     crystal axes: (cart. coord. in units of alat)
               a(1) = (   1.000000   0.000000   0.000000 )
               a(2) = (   0.000000   1.155671   0.000000 )
               a(3) = (   0.000000   0.000000   2.643601 )

     reciprocal axes: (cart. coord. in units 2 pi/alat)
               b(1) = (  1.000000  0.000000  0.000000 )
               b(2) = (  0.000000  0.865298  0.000000 )
               b(3) = (  0.000000  0.000000  0.378272 )

     PseudoPot. # 1 for Mo read from file:
     ../pseudo/Mo_ONCV_PBE-1.0.oncvpsp.upf
     MD5 check sum: 1b5d28e075c9ccadda658a603575cd1f
     Pseudo is Norm-conserving, Zval = 14.0
     Generated using ONCVPSP code by D. R. Hamann
     Using radial grid of 1526 points,  6 beta functions with:
                l(1) =   0
                l(2) =   0
                l(3) =   1
                l(4) =   1
                l(5) =   2
                l(6) =   2

     PseudoPot. # 2 for S  read from file:
     ../pseudo/s_pbe_v1.4.uspp.F.UPF
     MD5 check sum: 88d86576ff6df21479756cfb9bdac1df
     Pseudo is Ultrasoft + core correction, Zval =  6.0
     Generated by new atomic code, or converted to UPF format
     Using radial grid of  907 points,  6 beta functions with:
                l(1) =   0
                l(2) =   0
                l(3) =   1
                l(4) =   1
                l(5) =   2
                l(6) =   2
     Q(r) pseudized with  8 coefficients,  rinner =    1.300   1.300   1.300
                                                       1.300   1.300

     PseudoPot. # 3 for H  read from file:
     ../pseudo/H_ONCV_PBE-1.0.oncvpsp.upf
     MD5 check sum: 1790becc920ee074925cf490c71280fe
     Pseudo is Norm-conserving, Zval =  1.0
     Generated using ONCVPSP code by D. R. Hamann
     Using radial grid of 1166 points,  2 beta functions with:
                l(1) =   0
                l(2) =   0

     atomic species   valence    mass     pseudopotential
        Mo            14.00    95.94000     Mo( 1.00)
        S              6.00    32.06500     S ( 1.00)
        H              1.00     1.00794     H ( 1.00)

     No symmetry found

   Cartesian axes

     site n.     atom                  positions (alat units)
         1           Mo  tau(   1) = (   0.6952221   0.1890506   0.2985846  )
         2           S   tau(   2) = (   0.8646417   0.0856217   0.4689279  )
         3           S   tau(   3) = (   0.8663890   0.0857843   0.1351291  )
         4           Mo  tau(   4) = (   0.8560186   0.4753274   0.2873942  )
         5           S   tau(   5) = (   0.6873294   0.3936244   0.4596353  )
         6           S   tau(   6) = (   0.6929804   0.3713468   0.1185692  )
         7           Mo  tau(   7) = (   0.6862796   0.7633098   0.2825370  )
         8           S   tau(   8) = (   0.8545980   0.6708292   0.4486168  )
         9           S   tau(   9) = (   0.8545123   0.6666874   0.1146125  )
        10           Mo  tau(  10) = (   0.8629403   1.0471007   0.3006803  )
        11           S   tau(  11) = (   0.6868280   0.9456650   0.4634891  )
        12           S   tau(  12) = (   0.6998113   0.9568511   0.1205389  )
        13           Mo  tau(  13) = (   0.3618216   0.1847309   0.2935964  )
        14           S   tau(  14) = (   0.5260962   0.0863870   0.4600448  )
        15           S   tau(  15) = (   0.5348379   0.0894875   0.1297123  )
        16           Mo  tau(  16) = (   0.5265817   0.4772436   0.2784130  )
        17           S   tau(  17) = (   0.3624753   0.3882513   0.4525556  )
        18           S   tau(  18) = (   0.3635411   0.3752055   0.1119148  )
        19           Mo  tau(  19) = (   0.3652268   0.7630864   0.2781795  )
        20           S   tau(  20) = (   0.5269494   0.6690381   0.1096838  )
        21           Mo  tau(  21) = (   0.5300192   1.0470394   0.2900995  )
        22           S   tau(  22) = (   0.3670346   0.9457522   0.4574073  )
        23           S   tau(  23) = (   0.3604225   0.9585725   0.1159032  )
        24           Mo  tau(  24) = (   0.0313099   0.1847895   0.3013130  )
        25           S   tau(  25) = (   0.1956761   0.0838230   0.4650863  )
        26           S   tau(  26) = (   0.1967693   0.0903508   0.1278874  )
        27           Mo  tau(  27) = (   0.1967578   0.4753919   0.2813011  )
        28           S   tau(  28) = (   0.0287851   0.3864324   0.4586755  )
        29           S   tau(  29) = (   0.0244514   0.3729871   0.1239344  )
        30           Mo  tau(  30) = (   0.0286728   0.7631204   0.2856894  )
        31           S   tau(  31) = (   0.2011512   0.6675435   0.4465001  )
        32           S   tau(  32) = (   0.1969214   0.6672839   0.1104564  )
        33           Mo  tau(  33) = (   0.1950294   1.0511147   0.2932237  )
        34           S   tau(  34) = (   0.0312912   0.9612169   0.4667423  )
        35           S   tau(  35) = (   0.0292670   0.9563028   0.1216485  )
        36           H   tau(  36) = (   0.8888889   1.1556707   0.5656742  )

     number of k points=     1  Gaussian smearing, width (Ry)=  0.0100
                       cart. coord. in units 2pi/alat
        k(    1) = (   0.0000000   0.0000000   0.0000000), wk =   2.0000000

     Initial potential from superposition of free atoms

     starting charge     306.9873, renormalised to     307.0000

     negative rho (up, down):  1.412E-04 0.000E+00

Carrying out rVV10 run using the following parameters:
Nqs =      20    Nr_points =    1024   r_max =   100.000
b_value =  6.30000    beta =  0.00901
     q_mesh =  0.00010000  0.00030000  0.00058939  0.00100810
               0.00161396  0.00249058  0.00375900  0.00559430
               0.00824984  0.01209221  0.01765183  0.02569619
               0.03733578  0.05417739  0.07854596  0.11380545
               0.16482331  0.23864234  0.34545298  0.50000000

Gradients computed in Reciprocal space

     Starting wfcs are  213 randomized atomic wfcs

     Self-consistent Calculation

     iteration #  1     ecut=    80.00 Ry     beta= 0.70
     Davidson diagonalization with overlap
     ethr =  1.00E-02,  avg # of iterations =  2.0

     Threshold (ethr) on eigenvalues was too large:
     Diagonalizing with lowered threshold

     Davidson diagonalization with overlap
     ethr =  3.91E-04,  avg # of iterations =  4.0

[...]

     total energy              =   -2205.60903101 Ry
     estimated scf accuracy    <       1.49147344 Ry

[...]

     End of self-consistent calculation

          k = 0.0000 0.0000 0.0000 (105382 PWs)   bands (ev):

   -62.8727 -62.8215 -62.8072 -62.7953 -62.7898 -62.7791 -62.7600 -62.7593
   -62.7083 -62.5770 -62.5608 -62.4864 -37.1717 -37.1272 -37.1068 -37.0838
   -37.0690 -37.0586 -37.0553 -37.0280 -37.0121 -37.0088 -36.9889 -36.9859
   -36.9783 -36.9605 -36.9556 -36.9506 -36.9441 -36.9382 -36.9347 -36.9310
   -36.8962 -36.8721 -36.8502 -36.8304 -36.8208 -36.7919 -36.7897 -36.7801
   -36.7527 -36.7397 -36.7278 -36.7096 -36.6756 -36.6321 -36.5267 -36.5136
   -16.7439 -15.7416 -15.0985 -15.0164 -14.8902 -14.7843 -14.6466 -14.4206
   -14.3906 -14.3666 -14.3304 -14.2885 -14.2737 -14.2037 -14.1080 -14.0718
   -14.0346 -14.0102 -13.9495 -13.8881 -13.7515 -13.7435 -13.7089  -9.4914
    -7.5598  -7.3914  -7.2975  -7.2171  -7.2019  -7.1284  -7.1064  -7.0859
    -6.7887  -6.7384  -6.6972  -6.6457  -6.5220  -6.4802  -6.4255  -6.3701
    -6.2629  -6.2509  -6.1771  -5.9209  -5.8731  -5.8277  -5.7745  -5.7445
    -5.7023  -5.6617  -5.5846  -5.5738  -5.5283  -5.4886  -5.4745  -5.3943
    -5.3831  -5.2844  -5.2329  -5.1200  -5.0048  -4.9777  -4.9021  -4.8855
    -4.8552  -4.7412  -4.5973  -4.5264  -4.4094  -4.3009  -4.2226  -4.1713
    -4.1571  -4.0182  -3.9534  -3.8509  -3.7842  -3.7012  -3.6659  -3.6570
    -3.6087  -3.5320  -3.4963  -3.4593  -3.4312  -3.4058  -3.3561  -3.3063
    -3.2993  -3.1483  -3.0768  -2.8548  -2.8108  -2.7538  -2.7020  -2.6594
    -2.6398  -2.6252  -2.5895  -2.5250  -2.4453  -2.1879  -1.9368  -1.9129
    -1.8166  -0.6987  -0.5835  -0.4953  -0.1218  -0.0766  -0.0173   0.0165
     0.0918   0.2009   0.2140   0.2716   0.3195   0.3511   0.4296   0.5376
     0.5879   0.5968   0.6408   0.6510   0.6947   0.7430   0.7693   0.8027
     0.8523   0.8871   0.9176   0.9591   1.0315   1.0414   1.1001   1.2399
     1.4411

     the Fermi energy is    -0.7200 ev

!    total energy              =   -2205.52807593 Ry
     estimated scf accuracy    <       0.00000029 Ry
     smearing contrib. (-TS)   =      -0.00793534 Ry
     internal energy E=F+TS    =   -2205.52014059 Ry

     The total energy is F=E-TS. E is the sum of the following terms:
     one-electron contribution =  -18051.05830663 Ry
     hartree contribution      =    9012.98261177 Ry
     xc contribution           =    -385.45345532 Ry
     ewald contribution        =    7218.00900958 Ry

     convergence has been achieved in  17 iterations

[...]

     Forces acting on atoms (cartesian axes, Ry/au):

     atom    1 type  1   force =    -0.01400546   -0.00934368   -0.01113084
     atom    2 type  2   force =    -0.03217549    0.10665905   -0.09788862
[...]
     atom    3 type  2   force =     0.01364023   -0.29430810  -36.60507046
     atom    4 type  1   force =    -0.13486943    0.63548671    0.05358602
     atom    5 type  2   force =    -0.85993091    1.36361975   38.59542660
     atom    6 type  2   force =     0.34598036   -0.36552190  -38.44567652
     atom    7 type  1   force =    -2.60690761   -1.90037202    3.60578083
     atom    8 type  2   force =    -1.08912765    0.21191391   38.10934369
     atom    9 type  2   force =     0.22888116    0.20767703  -37.69821468
     atom   10 type  1   force =    -0.58007645   -0.04397980    4.12919979
     atom   11 type  2   force =    -0.52661683   -1.42584038   38.79922247
     atom   12 type  2   force =     0.23969904    0.36053957  -37.59543513
     atom   13 type  1   force =     0.11673758    0.61772381    2.11440298
     atom   14 type  2   force =     0.00862591   -0.15662212   38.66703445
     atom   15 type  2   force =     0.19870961   -0.29025192  -37.63573447
     atom   16 type  1   force =    -0.66012278    4.04140174    0.75657867
     atom   17 type  2   force =     0.85109303    1.40918193   38.20377932
     atom   18 type  2   force =    -0.15401582   -0.21447927  -38.12182653
     atom   19 type  1   force =     2.64397451   -2.54485979    1.65245694
     atom   20 type  2   force =    -0.03098438    0.06495573  -38.55637917
     atom   21 type  1   force =     0.48702579   -0.32638689    1.45648995
     atom   22 type  2   force =     0.40869794   -1.51511583   38.69535325
     atom   23 type  2   force =    -0.15624010    0.35295029  -38.05899485
     atom   24 type  1   force =    -0.49690092   -0.13196130    2.10034900
     atom   25 type  2   force =     0.22768058   -0.05008572   38.90489502
     atom   26 type  2   force =    -0.18857599   -0.22958878  -37.65036222
     atom   27 type  1   force =     0.60057342    0.97304526    0.49337162
     atom   28 type  2   force =     0.03083413    0.67030154   38.31015524
     atom   29 type  2   force =    -0.10677793   -0.11351162  -37.96115839
     atom   30 type  1   force =    -0.13787909   -0.74605590    1.78483184
     atom   31 type  2   force =     1.37692761    0.09349067   38.08678975
     atom   32 type  2   force =    -0.24501522    0.03556024  -37.92105101
     atom   33 type  1   force =     0.11250542   -0.43715908    2.87904212
     atom   34 type  2   force =     0.09359629   -0.49643889   38.97382738
     atom   35 type  2   force =    -0.10681760    0.29198666  -37.45729976
     atom   36 type  3   force =     0.02175593    0.12049072    8.71882705
     The local contribution  to forces
     atom    1 type  1   force =    -0.30767018   -0.05091529   -2.61296794
     atom    2 type  2   force =     0.23365524    0.15924413  -36.24740691
     atom    3 type  2   force =    -0.01169387    0.30378986   36.33948240
     atom    4 type  1   force =     0.13801177   -0.64929986   -0.05733461
     atom    5 type  2   force =     0.85250803   -1.33227052  -38.36896322
     atom    6 type  2   force =    -0.34636833    0.37129653   38.20556585
     atom    7 type  1   force =     2.64994844    1.91539840   -3.58178195
     atom    8 type  2   force =     1.08287957   -0.21158498  -37.86490357
     atom    9 type  2   force =    -0.22661542   -0.18768285   37.45066072
     atom   10 type  1   force =     0.57904851    0.06284849   -4.11503916
     atom   11 type  2   force =     0.51714636    1.41831039  -38.56528572
     atom   12 type  2   force =    -0.23213125   -0.34788137   37.35042627
     atom   13 type  1   force =    -0.11669282   -0.64706149   -2.10690831
     atom   14 type  2   force =    -0.01566570    0.16043142  -38.43145867
     atom   15 type  2   force =    -0.19686408    0.29402715   37.39564338
     atom   16 type  1   force =     0.67013866   -4.09740451   -0.73615280
     atom   17 type  2   force =    -0.84348387   -1.38533885  -37.97156440
     atom   18 type  2   force =     0.15283522    0.22067628   37.87829304
     atom   19 type  1   force =    -2.67215048    2.55521899   -1.64512379
     atom   20 type  2   force =     0.03179598   -0.05049079   38.31589912
     atom   21 type  1   force =    -0.48237078    0.31340063   -1.45908560
     atom   22 type  2   force =    -0.40232505    1.50671377  -38.45937651
     atom   23 type  2   force =     0.15146074   -0.34539055   37.81724502
     atom   24 type  1   force =     0.48161627    0.10664443   -2.08949056
     atom   25 type  2   force =    -0.22014847    0.05572211  -38.66803234
     atom   26 type  2   force =     0.18541519    0.23657219   37.40489099
     atom   27 type  1   force =    -0.60516788   -0.98938054   -0.49721668
     atom   28 type  2   force =    -0.02940817   -0.64594847  -38.07008548
     atom   29 type  2   force =     0.10612523    0.12380381   37.71580216
     atom   30 type  1   force =     0.13078561    0.73428052   -1.78879923
     atom   31 type  2   force =    -1.36572518   -0.09240755  -37.84408657
     atom   32 type  2   force =     0.24128242   -0.02283622   37.67380395
     atom   33 type  1   force =    -0.11565543    0.43615260   -2.88204113
     atom   34 type  2   force =    -0.08617562    0.49664519  -38.73093714
     atom   35 type  2   force =     0.10776626   -0.27897941   37.21124542
     atom   36 type  3   force =    -0.01945004   -0.11481821   -8.65622002
     The core correction contribution to forces
     atom    1 type  1   force =     0.00000000    0.00000000    0.00000000
     atom    2 type  2   force =    -0.00095417   -0.00204104   -0.01091383
     atom    3 type  2   force =     0.00008065    0.00028770   -0.02155958
     atom    4 type  1   force =     0.00000000    0.00000000    0.00000000
     atom    5 type  2   force =    -0.00067738    0.00203933    0.01987423
     atom    6 type  2   force =     0.00019527    0.00004653   -0.02081234
     atom    7 type  1   force =     0.00000000    0.00000000    0.00000000
     atom    8 type  2   force =    -0.00026036    0.00018746    0.02060136
     atom    9 type  2   force =     0.00022626    0.00126446   -0.02074749
     atom   10 type  1   force =     0.00000000    0.00000000    0.00000000
     atom   11 type  2   force =    -0.00071138   -0.00080397    0.02017891
     atom   12 type  2   force =     0.00054043    0.00073717   -0.02084013
     atom   13 type  1   force =     0.00000000    0.00000000    0.00000000
     atom   14 type  2   force =    -0.00067014   -0.00016699    0.02026262
     atom   15 type  2   force =     0.00010527   -0.00005099   -0.02067383
     atom   16 type  1   force =     0.00000000    0.00000000    0.00000000
     atom   17 type  2   force =     0.00065964    0.00134028    0.02020220
     atom   18 type  2   force =    -0.00006561    0.00009009   -0.02073212
     atom   19 type  1   force =     0.00000000    0.00000000    0.00000000
     atom   20 type  2   force =    -0.00004123    0.00067817   -0.02105665
     atom   21 type  1   force =     0.00000000    0.00000000    0.00000000
     atom   22 type  2   force =     0.00018572   -0.00084978    0.02035308
     atom   23 type  2   force =    -0.00046837    0.00075429   -0.02072838
     atom   24 type  1   force =     0.00000000    0.00000000    0.00000000
     atom   25 type  2   force =     0.00069808    0.00014286    0.02025075
     atom   26 type  2   force =    -0.00021638    0.00013712   -0.02097052
     atom   27 type  1   force =     0.00000000    0.00000000    0.00000000
     atom   28 type  2   force =     0.00018214    0.00186356    0.02040896
     atom   29 type  2   force =     0.00002353    0.00052240   -0.02086810
     atom   30 type  1   force =     0.00000000    0.00000000    0.00000000
     atom   31 type  2   force =     0.00081194    0.00025878    0.02065909
     atom   32 type  2   force =    -0.00024134    0.00074272   -0.02084648
     atom   33 type  1   force =     0.00000000    0.00000000    0.00000000
     atom   34 type  2   force =     0.00073990   -0.00034608    0.02064685
     atom   35 type  2   force =     0.00011245    0.00089316   -0.02106495
     atom   36 type  3   force =     0.00000000    0.00000000    0.00000000
     The Hubbard contrib.    to forces
     atom    1 type  1   force =     0.00000000    0.00000000    0.00000000
     atom    2 type  2   force =     0.00000000    0.00000000    0.00000000
     atom    3 type  2   force =     0.00000000    0.00000000    0.00000000
     atom    4 type  1   force =     0.00000000    0.00000000    0.00000000
     atom    5 type  2   force =     0.00000000    0.00000000    0.00000000
     atom    6 type  2   force =     0.00000000    0.00000000    0.00000000
     atom    7 type  1   force =     0.00000000    0.00000000    0.00000000
     atom    8 type  2   force =     0.00000000    0.00000000    0.00000000
     atom    9 type  2   force =     0.00000000    0.00000000    0.00000000
     atom   10 type  1   force =     0.00000000    0.00000000    0.00000000
     atom   11 type  2   force =     0.00000000    0.00000000    0.00000000
     atom   12 type  2   force =     0.00000000    0.00000000    0.00000000
     atom   13 type  1   force =     0.00000000    0.00000000    0.00000000
     atom   14 type  2   force =     0.00000000    0.00000000    0.00000000
     atom   15 type  2   force =     0.00000000    0.00000000    0.00000000
     atom   16 type  1   force =     0.00000000    0.00000000    0.00000000
     atom   17 type  2   force =     0.00000000    0.00000000    0.00000000
     atom   18 type  2   force =     0.00000000    0.00000000    0.00000000
     atom   19 type  1   force =     0.00000000    0.00000000    0.00000000
     atom   20 type  2   force =     0.00000000    0.00000000    0.00000000
     atom   21 type  1   force =     0.00000000    0.00000000    0.00000000
     atom   22 type  2   force =     0.00000000    0.00000000    0.00000000
     atom   23 type  2   force =     0.00000000    0.00000000    0.00000000
     atom   24 type  1   force =     0.00000000    0.00000000    0.00000000
     atom   25 type  2   force =     0.00000000    0.00000000    0.00000000
     atom   26 type  2   force =     0.00000000    0.00000000    0.00000000
     atom   27 type  1   force =     0.00000000    0.00000000    0.00000000
     atom   28 type  2   force =     0.00000000    0.00000000    0.00000000
     atom   29 type  2   force =     0.00000000    0.00000000    0.00000000
     atom   30 type  1   force =     0.00000000    0.00000000    0.00000000
     atom   31 type  2   force =     0.00000000    0.00000000    0.00000000
     atom   32 type  2   force =     0.00000000    0.00000000    0.00000000
     atom   33 type  1   force =     0.00000000    0.00000000    0.00000000
     atom   34 type  2   force =     0.00000000    0.00000000    0.00000000
     atom   35 type  2   force =     0.00000000    0.00000000    0.00000000
     atom   36 type  3   force =     0.00000000    0.00000000    0.00000000
     The SCF correction term to forces
     atom    1 type  1   force =     0.00000416   -0.00000762    0.00000948
     atom    2 type  2   force =    -0.00001402   -0.00001645   -0.00001535
     atom    3 type  2   force =     0.00000315    0.00000026    0.00000860
     atom    4 type  1   force =    -0.00001625   -0.00000986   -0.00002325
     atom    5 type  2   force =    -0.00001071   -0.00000596   -0.00000195
     atom    6 type  2   force =    -0.00000262    0.00000613    0.00000596
     atom    7 type  1   force =     0.00000955    0.00000794    0.00001815
     atom    8 type  2   force =    -0.00001797    0.00000575   -0.00000205
     atom    9 type  2   force =    -0.00000366   -0.00000506    0.00000202
     atom   10 type  1   force =    -0.00002720    0.00001493    0.00002135
     atom   11 type  2   force =     0.00000182    0.00000932    0.00000114
     atom   12 type  2   force =     0.00000893    0.00000023    0.00002109
     atom   13 type  1   force =     0.00002288    0.00000601   -0.00001306
     atom   14 type  2   force =     0.00001288   -0.00000553    0.00001088
     atom   15 type  2   force =    -0.00000192    0.00000743    0.00000923
     atom   16 type  1   force =     0.00002077   -0.00001784   -0.00000195
     atom   17 type  2   force =     0.00001646   -0.00000247   -0.00001914
     atom   18 type  2   force =    -0.00000493    0.00000214    0.00000368
     atom   19 type  1   force =     0.00003750   -0.00000973    0.00000083
     atom   20 type  2   force =     0.00001193   -0.00001616    0.00000368
     atom   21 type  1   force =     0.00004036    0.00001911    0.00004002
     atom   22 type  2   force =     0.00002445    0.00001448    0.00001413
     atom   23 type  2   force =    -0.00000044    0.00001353   -0.00000469
     atom   24 type  1   force =    -0.00001504   -0.00000035   -0.00002343
     atom   25 type  2   force =     0.00000892   -0.00000270   -0.00001573
     atom   26 type  2   force =    -0.00000233    0.00000761   -0.00000714
     atom   27 type  1   force =     0.00001084   -0.00003492   -0.00003679
     atom   28 type  2   force =    -0.00000667   -0.00000055   -0.00001785
     atom   29 type  2   force =     0.00000339    0.00000133   -0.00000948
     atom   30 type  1   force =    -0.00003433    0.00000017   -0.00000676
     atom   31 type  2   force =    -0.00000614   -0.00000664   -0.00000157
     atom   32 type  2   force =    -0.00001302   -0.00002295   -0.00001644
     atom   33 type  1   force =    -0.00001071    0.00003181   -0.00001062
     atom   34 type  2   force =    -0.00002376    0.00001050   -0.00000777
     atom   35 type  2   force =    -0.00001139    0.00000992   -0.00000186
     atom   36 type  3   force =    -0.00000355   -0.00000144   -0.00000048

     Total force =     0.006339     Total SCF correction =     0.000152
     Energy error            =      9.9E-05 Ry
     Gradient error          =      1.5E-03 Ry/Bohr

     bfgs converged in  40 scf cycles and  39 bfgs steps
     (criteria: energy <  1.0E-04 Ry, force <  1.0E-02 Ry/Bohr)

     End of BFGS Geometry Optimization

     Final energy             =   -2205.5910051769 Ry

     File ./MoS2-V-O.bfgs deleted, as requested
Begin final coordinates

ATOMIC_POSITIONS (angstrom)
Mo            6.5359218698        1.7622996014        2.7662045970
S             8.1373327668        0.8305927471        4.2849856635
S             8.1428882362        0.8026222245        1.2197978760
Mo            8.1396895746        4.4514662211        2.7043456146
S             6.5294518763        3.6700759417        4.3198600630
S             6.5718268344        3.5301350298        1.0919935156
Mo            6.5059620595        7.1385777286        2.6876503958
S             8.1009125006        6.2615727013        4.2981354459
S             8.1451444055        6.2921391424        1.1209211883
Mo            8.1386517600        9.8589490459        2.7970907967
S             6.4977539770        8.8889461050        4.3542722084
S             6.5955098227        8.9915126937        1.1489049067
Mo            3.4309438632        1.7322377684        2.7513347475
S             4.9832791327        0.8043338867        4.3461035965
S             5.0005275046        0.8146323578        1.1625638961
Mo            5.0220757395        4.4948218432        2.6357848176
S             3.4841503855        3.6439159160        4.2952249134
S             3.4306279954        3.5365718696        1.1004370067
Mo            3.4763359291        7.1993618424        2.6504276172
S             4.9952569253        6.2876244190        1.0401585244
Mo            4.9988587412        9.8920742697        2.7383603904
S             3.4707097183        8.9397248836        4.3340234132
S             3.4051286829        9.0362901259        1.1216583602
Mo            0.3004177740        1.7437358399        2.7691798701
S             1.8683754793        0.8336817076        4.3672261066
S             1.8476297377        0.8198980902        1.1692974189
Mo            1.8749580737        4.4663921398        2.7072540768
S             0.2871960686        3.6021268546        4.3164817300
S             0.2853632346        3.5341146798        1.1297301555
Mo            0.2846325919        7.1841525971        2.7344458606
S             1.9347874023        6.2813512621        4.2927194777
S             1.8568891879        6.2959429697        1.1052010163
Mo            1.8521658982        9.9193631736        2.7688487447
S             0.2910327906        8.9707654115        4.3707192418
S             0.2648463136        9.0210728717        1.1761260570
H             8.1911210477       11.8767704483        5.6488535087
End final coordinates

     Writing all to output data dir ./MoS2-V-O.save/

     General routines

     Parallel routines

   This run was terminated on:  12:54:50   4Nov2023

   JOB DONE.