     Program PWSCF v.7.2 starts on  3Nov2023 at 23:54:45

     Waiting for input...
     Reading input from standard input
Warning: card &CELL ignored
Warning: card CELL_DYNAMICS = 'BFGS', ignored
Warning: card CELL_DOFREE = '2DXY' ignored
Warning: card / ignored

     Current dimensions of program PWSCF are:
     Max number of different atomic species (ntypx) = 10
     Max number of k-points (npk) =  40000
     Max angular momentum in pseudopotentials (lmaxx) =  4

     IMPORTANT: XC functional enforced from input :
     Exchange-correlation= RVV10
                           (   1   4  13   4  26   0   0)
     Any further DFT definition will be discarded
     Please, verify this is what you really want

     gamma-point specific algorithms are used
     signal trapping enabled: kill the code with -SIGUSR1 to stop cleanly the simulation

     R & G space division:  proc/nbgrp/npool/nimage =      48
     Subspace diagonalization in iterative solution of the eigenvalue problem:
     one sub-group per band group will be used

     Using Slab Decomposition

     bravais-lattice index     =            0
     lattice parameter (alat)  =      17.8707  a.u.
     unit-cell volume          =   17436.2743 (a.u.)^3
     number of atoms/cell      =           36
     number of atomic types    =            3
     number of electrons       =       307.00
     number of Kohn-Sham states=          185
     kinetic-energy cutoff     =      80.0000  Ry
     charge density cutoff     =     400.0000  Ry
     scf convergence threshold =      1.0E-06
     mixing beta               =       0.7000
     number of iterations used =            8  local-TF  mixing
     energy convergence thresh.=      1.0E-04
     force convergence thresh. =      1.0E-02
     Exchange-correlation= RVV10
                           (   1   4  13   4  26   0   0)
     nstep                     =          200

     celldm(1)=  17.870686  celldm(2)=   0.000000  celldm(3)=   0.000000
     celldm(4)=   0.000000  celldm(5)=   0.000000  celldm(6)=   0.000000

     crystal axes: (cart. coord. in units of alat)
               a(1) = (   1.000000   0.000000   0.000000 )
               a(2) = (   0.000000   1.155671   0.000000 )
               a(3) = (   0.000000   0.000000   2.643601 )

     reciprocal axes: (cart. coord. in units 2 pi/alat)
               b(1) = (  1.000000  0.000000  0.000000 )
               b(2) = (  0.000000  0.865298  0.000000 )
               b(3) = (  0.000000  0.000000  0.378272 )

     PseudoPot. # 1 for Mo read from file:
     ../pseudo/Mo_ONCV_PBE-1.0.oncvpsp.upf
     MD5 check sum: 1b5d28e075c9ccadda658a603575cd1f
     Pseudo is Norm-conserving, Zval = 14.0
     Generated using ONCVPSP code by D. R. Hamann
     Using radial grid of 1526 points,  6 beta functions with:
                l(1) =   0
                l(2) =   0
                l(3) =   1
                l(4) =   1
                l(5) =   2
                l(6) =   2

     PseudoPot. # 2 for S  read from file:
     ../pseudo/s_pbe_v1.4.uspp.F.UPF
     MD5 check sum: 88d86576ff6df21479756cfb9bdac1df
     Pseudo is Ultrasoft + core correction, Zval =  6.0
     Generated by new atomic code, or converted to UPF format
     Using radial grid of  907 points,  6 beta functions with:
                l(1) =   0
                l(2) =   0
                l(3) =   1
                l(4) =   1
                l(5) =   2
                l(6) =   2
     Q(r) pseudized with  8 coefficients,  rinner =    1.300   1.300   1.300
                                                       1.300   1.300

     PseudoPot. # 3 for H  read from file:
     ../pseudo/H_ONCV_PBE-1.0.oncvpsp.upf
     MD5 check sum: 1790becc920ee074925cf490c71280fe
     Pseudo is Norm-conserving, Zval =  1.0
     Generated using ONCVPSP code by D. R. Hamann
     Using radial grid of 1166 points,  2 beta functions with:
                l(1) =   0
                l(2) =   0

     atomic species   valence    mass     pseudopotential
        Mo            14.00    95.94000     Mo( 1.00)
        S              6.00    32.06500     S ( 1.00)
        H              1.00     1.00794     H ( 1.00)

     No symmetry found

   Cartesian axes

     site n.     atom                  positions (alat units)
         1           Mo  tau(   1) = (   0.6952221   0.1890506   0.2985846  )
         2           S   tau(   2) = (   0.8646417   0.0856217   0.4689279  )
         3           S   tau(   3) = (   0.8663890   0.0857843   0.1351291  )
         4           Mo  tau(   4) = (   0.8560186   0.4753274   0.2873942  )
         5           S   tau(   5) = (   0.6873294   0.3936244   0.4596353  )
         6           S   tau(   6) = (   0.6929804   0.3713468   0.1185692  )
         7           Mo  tau(   7) = (   0.6862796   0.7633098   0.2825370  )
         8           S   tau(   8) = (   0.8545980   0.6708292   0.4486168  )
         9           S   tau(   9) = (   0.8545123   0.6666874   0.1146125  )
        10           Mo  tau(  10) = (   0.8629403   1.0471007   0.3006803  )
        11           S   tau(  11) = (   0.6868280   0.9456650   0.4634891  )
        12           S   tau(  12) = (   0.6998113   0.9568511   0.1205389  )
        13           Mo  tau(  13) = (   0.3618216   0.1847309   0.2935964  )
        14           S   tau(  14) = (   0.5260962   0.0863870   0.4600448  )
        15           S   tau(  15) = (   0.5348379   0.0894875   0.1297123  )
        16           Mo  tau(  16) = (   0.5265817   0.4772436   0.2784130  )
        17           S   tau(  17) = (   0.3624753   0.3882513   0.4525556  )
        18           S   tau(  18) = (   0.3635411   0.3752055   0.1119148  )
        19           Mo  tau(  19) = (   0.3652268   0.7630864   0.2781795  )
        20           S   tau(  20) = (   0.5269494   0.6690381   0.1096838  )
        21           Mo  tau(  21) = (   0.5300192   1.0470394   0.2900995  )
        22           S   tau(  22) = (   0.3670346   0.9457522   0.4574073  )
        23           S   tau(  23) = (   0.3604225   0.9585725   0.1159032  )
        24           Mo  tau(  24) = (   0.0313099   0.1847895   0.3013130  )
        25           S   tau(  25) = (   0.1956761   0.0838230   0.4650863  )
        26           S   tau(  26) = (   0.1967693   0.0903508   0.1278874  )
        27           Mo  tau(  27) = (   0.1967578   0.4753919   0.2813011  )
        28           S   tau(  28) = (   0.0287851   0.3864324   0.4586755  )
        29           S   tau(  29) = (   0.0244514   0.3729871   0.1239344  )
        30           Mo  tau(  30) = (   0.0286728   0.7631204   0.2856894  )
        31           S   tau(  31) = (   0.2011512   0.6675435   0.4465001  )
        32           S   tau(  32) = (   0.1969214   0.6672839   0.1104564  )
        33           Mo  tau(  33) = (   0.1950294   1.0511147   0.2932237  )
        34           S   tau(  34) = (   0.0312912   0.9612169   0.4667423  )
        35           S   tau(  35) = (   0.0292670   0.9563028   0.1216485  )
        36           H   tau(  36) = (   0.0000000   0.3852236   0.5650415  )

     number of k points=     1  Gaussian smearing, width (Ry)=  0.0100
                       cart. coord. in units 2pi/alat
        k(    1) = (   0.0000000   0.0000000   0.0000000), wk =   2.0000000

     Initial potential from superposition of free atoms

     starting charge     306.9873, renormalised to     307.0000

     negative rho (up, down):  1.409E-04 0.000E+00

Carrying out rVV10 run using the following parameters:
Nqs =      20    Nr_points =    1024   r_max =   100.000
b_value =  6.30000    beta =  0.00901
     q_mesh =  0.00010000  0.00030000  0.00058939  0.00100810
               0.00161396  0.00249058  0.00375900  0.00559430
               0.00824984  0.01209221  0.01765183  0.02569619
               0.03733578  0.05417739  0.07854596  0.11380545
               0.16482331  0.23864234  0.34545298  0.50000000

Gradients computed in Reciprocal space

     Starting wfcs are  213 randomized atomic wfcs

     Self-consistent Calculation

     iteration #  1     ecut=    80.00 Ry     beta= 0.70
     Davidson diagonalization with overlap
     ethr =  1.00E-02,  avg # of iterations =  2.0

     Threshold (ethr) on eigenvalues was too large:
     Diagonalizing with lowered threshold

     Davidson diagonalization with overlap
     ethr =  3.92E-04,  avg # of iterations =  4.0

[...]

     total energy              =   -2205.48432286 Ry
     estimated scf accuracy    <       1.49255791 Ry

[...]

     End of self-consistent calculation

          k = 0.0000 0.0000 0.0000 (105382 PWs)   bands (ev):

   -62.9336 -62.8764 -62.8570 -62.7506 -62.7395 -62.7334 -62.7259 -62.7232
   -62.6980 -62.5056 -62.4886 -62.4571 -37.2300 -37.1690 -37.1479 -37.1093
   -37.0822 -37.0705 -37.0620 -37.0221 -37.0116 -36.9997 -36.9926 -36.9661
   -36.9508 -36.9427 -36.9344 -36.9188 -36.9143 -36.9080 -36.9033 -36.8979
   -36.8702 -36.8513 -36.8453 -36.8040 -36.7789 -36.7734 -36.7451 -36.7377
   -36.7084 -36.6844 -36.6727 -36.6490 -36.6235 -36.6215 -36.4607 -36.4519
   -17.7820 -15.7928 -15.0299 -15.0164 -14.8648 -14.7534 -14.6766 -14.4095
   -14.3844 -14.3519 -14.2946 -14.2640 -14.2284 -14.1776 -14.1192 -14.0398
   -14.0195 -14.0165 -13.9108 -13.8700 -13.7341 -13.7031 -13.6881 -10.2416
    -7.6574  -7.3758  -7.2906  -7.2613  -7.1755  -7.1612  -7.0600  -7.0356
    -6.8061  -6.7368  -6.6974  -6.6563  -6.5509  -6.4758  -6.3962  -6.3390
    -6.3208  -6.1632  -6.1421  -5.9026  -5.8770  -5.8407  -5.7778  -5.6994
    -5.6318  -5.6187  -5.6044  -5.5852  -5.5609  -5.5201  -5.4640  -5.3912
    -5.3520  -5.2989  -5.1038  -5.0618  -4.9900  -4.9478  -4.9124  -4.8817
    -4.8240  -4.7591  -4.5669  -4.5523  -4.3860  -4.2852  -4.2162  -4.1884
    -4.1351  -4.0444  -3.9126  -3.8242  -3.7164  -3.7001  -3.6616  -3.6411
    -3.5891  -3.5163  -3.4811  -3.4564  -3.4263  -3.3742  -3.3431  -3.2978
    -3.2528  -3.1564  -3.0538  -2.8511  -2.7930  -2.7153  -2.6969  -2.6794
    -2.6226  -2.5698  -2.5379  -2.4874  -2.4333  -2.2062  -1.9171  -1.9001
    -1.7588  -0.6079  -0.5191  -0.3103  -0.1417  -0.1082  -0.0055   0.0420
     0.0709   0.1352   0.2684   0.3425   0.3822   0.4050   0.4369   0.5076
     0.5320   0.6386   0.6593   0.6640   0.7296   0.7585   0.7973   0.8423
     0.8833   0.9038   0.9613   0.9948   1.0373   1.0706   1.1043   1.3729
     1.4703

     the Fermi energy is    -0.6356 ev

!    total energy              =   -2205.39785960 Ry
     estimated scf accuracy    <       0.00000079 Ry
     smearing contrib. (-TS)   =      -0.00814187 Ry
     internal energy E=F+TS    =   -2205.38971772 Ry

     The total energy is F=E-TS. E is the sum of the following terms:
     one-electron contribution =  -18051.25268546 Ry
     hartree contribution      =    9013.23368975 Ry
     xc contribution           =    -385.58747335 Ry
     ewald contribution        =    7218.21675133 Ry

     convergence has been achieved in  16 iterations

[...]

     Forces acting on atoms (cartesian axes, Ry/au):

     atom    1 type  1   force =     0.01396997   -0.02250618    0.00322564
     atom    2 type  2   force =    -0.01614857    0.01457463    0.00168133
[...]
     atom    3 type  2   force =     0.12289151    0.03615817  -37.69870770
     atom    4 type  1   force =     0.20741618    0.70282176   -0.08246864
     atom    5 type  2   force =    -0.90719132    1.22645310   38.23908587
     atom    6 type  2   force =     0.36172353   -0.28645436  -38.53545429
     atom    7 type  1   force =    -2.27073353   -2.78794882    2.64217319
     atom    8 type  2   force =    -1.23512243    0.12009271   38.08464558
     atom    9 type  2   force =     0.39460819    0.06990838  -37.77938709
     atom   10 type  1   force =    -0.26252411   -0.76000517    3.03613561
     atom   11 type  2   force =    -0.36808269   -1.43531554   38.83862908
     atom   12 type  2   force =     0.29632582    0.26916787  -38.12538698
     atom   13 type  1   force =    -0.09667916    0.74653588    2.60381075
     atom   14 type  2   force =     0.03664368    0.06955746   38.51324387
     atom   15 type  2   force =    -0.04618482   -0.07369810  -37.60252628
     atom   16 type  1   force =    -0.10381881    4.19497662   -0.41428016
     atom   17 type  2   force =     0.90270894    1.25550023   38.42884093
     atom   18 type  2   force =    -0.43887584   -0.25824354  -38.26504153
     atom   19 type  1   force =     2.29654837   -2.91536252    3.03322796
     atom   20 type  2   force =    -0.05976366   -0.14360274  -38.44372732
     atom   21 type  1   force =     0.05362949   -0.02691643    0.99312682
     atom   22 type  2   force =     0.39281208   -1.41856216   38.94859133
     atom   23 type  2   force =    -0.33769903    0.25585878  -38.06876867
     atom   24 type  1   force =     0.08393537    1.09366546    2.81094409
     atom   25 type  2   force =     0.28752173    0.19100440   39.15805733
     atom   26 type  2   force =    -0.09241722    0.04616426  -37.53743231
     atom   27 type  1   force =    -0.15980240    0.63433793    1.61585049
     atom   28 type  2   force =     0.13609758    0.47409882   35.04365221
     atom   29 type  2   force =     0.09343363   -0.04423690  -36.78122829
     atom   30 type  1   force =    -0.01180791   -1.02309950    2.29631824
     atom   31 type  2   force =     1.21033304    0.09487930   38.26556458
     atom   32 type  2   force =    -0.33717912   -0.01695148  -37.59600616
     atom   33 type  1   force =     0.25438538   -0.71776606    3.53150936
     atom   34 type  2   force =    -0.04134428   -0.55018227   38.88673030
     atom   35 type  2   force =     0.01821051    0.05444208  -37.29560634
     atom   36 type  3   force =    -0.08086048    0.11720480    8.69322665
     The local contribution  to forces
     atom    1 type  1   force =    -0.02332365   -0.70169485   -1.55816034
     atom    2 type  2   force =     0.31858570   -0.12538034  -38.76313696
     atom    3 type  2   force =    -0.12138154   -0.02474289   37.45094314
     atom    4 type  1   force =    -0.18786457   -0.71947340    0.08747720
     atom    5 type  2   force =     0.89343078   -1.20351334  -38.01439204
     atom    6 type  2   force =    -0.35739477    0.28965110   38.29599484
     atom    7 type  1   force =     2.30440919    2.79925133   -2.62804173
     atom    8 type  2   force =     1.22601561   -0.11395188  -37.84944679
     atom    9 type  2   force =    -0.39054425   -0.05121724   37.53167658
     atom   10 type  1   force =     0.26530681    0.76531627   -3.03906701
     atom   11 type  2   force =     0.35956526    1.43421222  -38.59874855
     atom   12 type  2   force =    -0.28858362   -0.26150292   37.88645746
     atom   13 type  1   force =     0.09351624   -0.77241062   -2.59815687
     atom   14 type  2   force =    -0.03574142   -0.06320906  -38.27043243
     atom   15 type  2   force =     0.04572152    0.07646938   37.35963984
     atom   16 type  1   force =     0.10341666   -4.24833362    0.41940223
     atom   17 type  2   force =    -0.88700497   -1.23323477  -38.20345136
     atom   18 type  2   force =     0.43312920    0.26137657   38.02591370
     atom   19 type  1   force =    -2.33016417    2.92643553   -3.01969300
     atom   20 type  2   force =     0.05911965    0.15990776   38.20174549
     atom   21 type  1   force =    -0.05344149    0.01249329   -0.99675374
     atom   22 type  2   force =    -0.38344215    1.41708220  -38.70889031
     atom   23 type  2   force =     0.33000535   -0.24810448   37.83014983
     atom   24 type  1   force =    -0.08339742   -1.08714865   -2.79598060
     atom   25 type  2   force =    -0.27945823   -0.18726727  -38.92234760
     atom   26 type  2   force =     0.09125959   -0.03409679   37.29034918
     atom   27 type  1   force =     0.13998180   -0.65094336   -1.60979857
     atom   28 type  2   force =    -0.12194931   -0.46846343  -35.30401727
     atom   29 type  2   force =    -0.09125660    0.05667315   36.51951854
     atom   30 type  1   force =     0.01122720    1.00260346   -2.30251356
     atom   31 type  2   force =    -1.20180624   -0.08799637  -38.03002174
     atom   32 type  2   force =     0.33338906    0.03407756   37.34784639
     atom   33 type  1   force =    -0.25835792    0.72254252   -3.53421011
     atom   34 type  2   force =     0.04073261    0.55853649  -38.63770547
     atom   35 type  2   force =    -0.01795006   -0.03863522   37.04912685
     atom   36 type  3   force =     0.07858852   -0.11533376   -8.62768564
     The core correction contribution to forces
     atom    1 type  1   force =     0.00000000    0.00000000    0.00000000
     atom    2 type  2   force =    -0.00086029   -0.00011495    0.02021689
     atom    3 type  2   force =     0.00005621    0.00036171   -0.02108453
     atom    4 type  1   force =     0.00000000    0.00000000    0.00000000
     atom    5 type  2   force =    -0.00126827    0.00113179    0.01986221
     atom    6 type  2   force =     0.00027266   -0.00026781   -0.02074357
     atom    7 type  1   force =     0.00000000    0.00000000    0.00000000
     atom    8 type  2   force =    -0.00072159    0.00080415    0.02004853
     atom    9 type  2   force =     0.00036606    0.00122985   -0.02084412
     atom   10 type  1   force =     0.00000000    0.00000000    0.00000000
     atom   11 type  2   force =    -0.00033046   -0.00033783    0.02061633
     atom   12 type  2   force =     0.00060662    0.00071501   -0.02068264
     atom   13 type  1   force =     0.00000000    0.00000000    0.00000000
     atom   14 type  2   force =     0.00008281    0.00000661    0.02060443
     atom   15 type  2   force =    -0.00014111    0.00015506   -0.02061313
     atom   16 type  1   force =     0.00000000    0.00000000    0.00000000
     atom   17 type  2   force =     0.00153114    0.00109979    0.01993992
     atom   18 type  2   force =    -0.00041791   -0.00029106   -0.02075492
     atom   19 type  1   force =     0.00000000    0.00000000    0.00000000
     atom   20 type  2   force =    -0.00006673    0.00071185   -0.02104675
     atom   21 type  1   force =     0.00000000    0.00000000    0.00000000
     atom   22 type  2   force =     0.00038383   -0.00033090    0.02063383
     atom   23 type  2   force =    -0.00066828    0.00071370   -0.02067056
     atom   24 type  1   force =     0.00000000    0.00000000    0.00000000
     atom   25 type  2   force =     0.00070038   -0.00016271    0.02026568
     atom   26 type  2   force =     0.00002503    0.00046459   -0.02106478
     atom   27 type  1   force =     0.00000000    0.00000000    0.00000000
     atom   28 type  2   force =     0.00095840    0.00035183   -0.01114509
     atom   29 type  2   force =     0.00022604    0.00044756   -0.02132891
     atom   30 type  1   force =     0.00000000    0.00000000    0.00000000
     atom   31 type  2   force =     0.00069182    0.00100209    0.02011414
     atom   32 type  2   force =    -0.00028113    0.00110002   -0.02087904
     atom   33 type  1   force =     0.00000000    0.00000000    0.00000000
     atom   34 type  2   force =    -0.00007634    0.00039297    0.02098159
     atom   35 type  2   force =     0.00008073    0.00091041   -0.02096688
     atom   36 type  3   force =     0.00000000    0.00000000    0.00000000
     The Hubbard contrib.    to forces
     atom    1 type  1   force =     0.00000000    0.00000000    0.00000000
     atom    2 type  2   force =     0.00000000    0.00000000    0.00000000
     atom    3 type  2   force =     0.00000000    0.00000000    0.00000000
     atom    4 type  1   force =     0.00000000    0.00000000    0.00000000
     atom    5 type  2   force =     0.00000000    0.00000000    0.00000000
     atom    6 type  2   force =     0.00000000    0.00000000    0.00000000
     atom    7 type  1   force =     0.00000000    0.00000000    0.00000000
     atom    8 type  2   force =     0.00000000    0.00000000    0.00000000
     atom    9 type  2   force =     0.00000000    0.00000000    0.00000000
     atom   10 type  1   force =     0.00000000    0.00000000    0.00000000
     atom   11 type  2   force =     0.00000000    0.00000000    0.00000000
     atom   12 type  2   force =     0.00000000    0.00000000    0.00000000
     atom   13 type  1   force =     0.00000000    0.00000000    0.00000000
     atom   14 type  2   force =     0.00000000    0.00000000    0.00000000
     atom   15 type  2   force =     0.00000000    0.00000000    0.00000000
     atom   16 type  1   force =     0.00000000    0.00000000    0.00000000
     atom   17 type  2   force =     0.00000000    0.00000000    0.00000000
     atom   18 type  2   force =     0.00000000    0.00000000    0.00000000
     atom   19 type  1   force =     0.00000000    0.00000000    0.00000000
     atom   20 type  2   force =     0.00000000    0.00000000    0.00000000
     atom   21 type  1   force =     0.00000000    0.00000000    0.00000000
     atom   22 type  2   force =     0.00000000    0.00000000    0.00000000
     atom   23 type  2   force =     0.00000000    0.00000000    0.00000000
     atom   24 type  1   force =     0.00000000    0.00000000    0.00000000
     atom   25 type  2   force =     0.00000000    0.00000000    0.00000000
     atom   26 type  2   force =     0.00000000    0.00000000    0.00000000
     atom   27 type  1   force =     0.00000000    0.00000000    0.00000000
     atom   28 type  2   force =     0.00000000    0.00000000    0.00000000
     atom   29 type  2   force =     0.00000000    0.00000000    0.00000000
     atom   30 type  1   force =     0.00000000    0.00000000    0.00000000
     atom   31 type  2   force =     0.00000000    0.00000000    0.00000000
     atom   32 type  2   force =     0.00000000    0.00000000    0.00000000
     atom   33 type  1   force =     0.00000000    0.00000000    0.00000000
     atom   34 type  2   force =     0.00000000    0.00000000    0.00000000
     atom   35 type  2   force =     0.00000000    0.00000000    0.00000000
     atom   36 type  3   force =     0.00000000    0.00000000    0.00000000
     The SCF correction term to forces
     atom    1 type  1   force =    -0.00000857   -0.00000417    0.00001527
     atom    2 type  2   force =    -0.00000513   -0.00000870   -0.00000132
     atom    3 type  2   force =     0.00000062   -0.00000424    0.00000643
     atom    4 type  1   force =    -0.00003071    0.00000511   -0.00001120
     atom    5 type  2   force =    -0.00001001   -0.00000333   -0.00000806
     atom    6 type  2   force =    -0.00000457    0.00000999    0.00000453
     atom    7 type  1   force =    -0.00000987   -0.00002388   -0.00001896
     atom    8 type  2   force =    -0.00000756    0.00000070   -0.00000428
     atom    9 type  2   force =    -0.00000972   -0.00000033   -0.00001084
     atom   10 type  1   force =     0.00000448    0.00000686    0.00000910
     atom   11 type  2   force =     0.00000345    0.00001117    0.00001019
     atom   12 type  2   force =     0.00000096   -0.00000026   -0.00000638
     atom   13 type  1   force =     0.00000627   -0.00000429    0.00001755
     atom   14 type  2   force =     0.00000266    0.00000302    0.00000828
     atom   15 type  2   force =     0.00000178   -0.00000019    0.00000488
     atom   16 type  1   force =     0.00000661    0.00001101   -0.00000173
     atom   17 type  2   force =     0.00000739   -0.00000297    0.00000180
     atom   18 type  2   force =    -0.00000042    0.00001286    0.00000362
     atom   19 type  1   force =    -0.00000864    0.00000892   -0.00001091
     atom   20 type  2   force =    -0.00000228   -0.00000036   -0.00000385
     atom   21 type  1   force =    -0.00001874   -0.00000682    0.00000246
     atom   22 type  2   force =    -0.00000061   -0.00000027   -0.00000152
     atom   23 type  2   force =    -0.00000374   -0.00001017    0.00000000
     atom   24 type  1   force =    -0.00000608   -0.00002203    0.00000240
     atom   25 type  2   force =     0.00000262   -0.00000746    0.00000408
     atom   26 type  2   force =     0.00000189   -0.00000943   -0.00000127
     atom   27 type  1   force =     0.00003501    0.00002612   -0.00002365
     atom   28 type  2   force =    -0.00000326   -0.00000429    0.00000639
     atom   29 type  2   force =    -0.00000337    0.00000242   -0.00000618
     atom   30 type  1   force =     0.00001072    0.00001238   -0.00001201
     atom   31 type  2   force =     0.00001430    0.00000189   -0.00000249
     atom   32 type  2   force =     0.00001428    0.00000207   -0.00000454
     atom   33 type  1   force =     0.00000299   -0.00001265   -0.00000153
     atom   34 type  2   force =     0.00000192    0.00001349    0.00000332
     atom   35 type  2   force =     0.00000514    0.00000113   -0.00000499
     atom   36 type  3   force =    -0.00000038   -0.00000076    0.00000029

     Total force =     0.007301     Total SCF correction =     0.000100
     Energy error            =      9.8E-05 Ry
     Gradient error          =      2.1E-03 Ry/Bohr

     bfgs converged in  17 scf cycles and  16 bfgs steps
     (criteria: energy <  1.0E-04 Ry, force <  1.0E-02 Ry/Bohr)

     End of BFGS Geometry Optimization

     Final energy             =   -2205.5899937192 Ry

     File ./MoS2-V-O.bfgs deleted, as requested
Begin final coordinates

ATOMIC_POSITIONS (angstrom)
Mo            6.5659489737        1.7570606136        2.7413504579
S             8.1064462088        0.8299735326        4.3756875437
S             8.1470431055        0.8206525156        1.1679602012
Mo            8.0835377658        4.5112896811        2.7077642412
S             6.5075690723        3.6660833737        4.2931424491
S             6.5725770394        3.5509184470        1.0831669172
Mo            6.4926069631        7.2200250086        2.6718890007
S             8.0576727652        6.3244380533        4.3050806095
S             8.1344621451        6.3295843181        1.1149223628
Mo            8.1277858856        9.9286811147        2.7735595194
S             6.5027486776        8.9612534942        4.3400421400
S             6.5819036948        9.0430599727        1.1206990468
Mo            3.4094509072        1.7593061357        2.7599502174
S             4.9934848958        0.8359949198        4.3352707519
S             4.9793748774        0.8487365211        1.1629105209
Mo            4.9945361514        4.4937593582        2.6202782371
S             3.4928135625        3.6696656557        4.3094841091
S             3.4016597839        3.5506947624        1.1019320424
Mo            3.4950334468        7.2253349114        2.6804996115
S             4.9901765511        6.3165922525        1.0470256720
Mo            4.9906244204        9.9233552899        2.7302241230
S             3.4849696210        8.9685328179        4.3484291108
S             3.3972163326        9.0430156358        1.1274028683
Mo            0.2574119015        1.6900340302        2.7831029171
S             1.8572712330        0.8307260062        4.3903787341
S             1.8376882304        0.8260738663        1.1800595279
Mo            1.8997144563        4.5130730336        2.7370800368
S             0.2426801620        3.6140228758        4.2133476809
S             0.2722373208        3.5560248017        1.1891368322
Mo            0.2663450725        7.2065753099        2.7479533140
S             1.9288732242        6.3379688381        4.3205364553
S             1.8586442467        6.3230188319        1.1289822453
Mo            1.8556589590        9.9319846946        2.7834025366
S             0.2595245935        9.0190813482        4.3679649830
S             0.2705100730        9.0362870054        1.1859330788
H             0.1561446921        3.6610340500        5.5737897755
End final coordinates

     Writing all to output data dir ./MoS2-V-O.save/

     General routines

     Parallel routines

   This run was terminated on:   0:24:27   4Nov2023

   JOB DONE.