     Program PWSCF v.7.2 starts on  4Nov2023 at  8:30:44

     Waiting for input...
     Reading input from standard input
Warning: card &CELL ignored
Warning: card CELL_DYNAMICS = 'BFGS', ignored
Warning: card CELL_DOFREE = '2DXY' ignored
Warning: card / ignored

     Current dimensions of program PWSCF are:
     Max number of different atomic species (ntypx) = 10
     Max number of k-points (npk) =  40000
     Max angular momentum in pseudopotentials (lmaxx) =  4

     IMPORTANT: XC functional enforced from input :
     Exchange-correlation= RVV10
                           (   1   4  13   4  26   0   0)
     Any further DFT definition will be discarded
     Please, verify this is what you really want

     gamma-point specific algorithms are used
     signal trapping enabled: kill the code with -SIGUSR1 to stop cleanly the simulation

     R & G space division:  proc/nbgrp/npool/nimage =      48
     Subspace diagonalization in iterative solution of the eigenvalue problem:
     one sub-group per band group will be used

     Using Slab Decomposition

     bravais-lattice index     =            0
     lattice parameter (alat)  =      17.8707  a.u.
     unit-cell volume          =   17436.2743 (a.u.)^3
     number of atoms/cell      =           36
     number of atomic types    =            3
     number of electrons       =       307.00
     number of Kohn-Sham states=          185
     kinetic-energy cutoff     =      80.0000  Ry
     charge density cutoff     =     400.0000  Ry
     scf convergence threshold =      1.0E-06
     mixing beta               =       0.7000
     number of iterations used =            8  local-TF  mixing
     energy convergence thresh.=      1.0E-04
     force convergence thresh. =      1.0E-02
     Exchange-correlation= RVV10
                           (   1   4  13   4  26   0   0)
     nstep                     =          200

     celldm(1)=  17.870686  celldm(2)=   0.000000  celldm(3)=   0.000000
     celldm(4)=   0.000000  celldm(5)=   0.000000  celldm(6)=   0.000000

     crystal axes: (cart. coord. in units of alat)
               a(1) = (   1.000000   0.000000   0.000000 )
               a(2) = (   0.000000   1.155671   0.000000 )
               a(3) = (   0.000000   0.000000   2.643601 )

     reciprocal axes: (cart. coord. in units 2 pi/alat)
               b(1) = (  1.000000  0.000000  0.000000 )
               b(2) = (  0.000000  0.865298  0.000000 )
               b(3) = (  0.000000  0.000000  0.378272 )

     PseudoPot. # 1 for Mo read from file:
     ../pseudo/Mo_ONCV_PBE-1.0.oncvpsp.upf
     MD5 check sum: 1b5d28e075c9ccadda658a603575cd1f
     Pseudo is Norm-conserving, Zval = 14.0
     Generated using ONCVPSP code by D. R. Hamann
     Using radial grid of 1526 points,  6 beta functions with:
                l(1) =   0
                l(2) =   0
                l(3) =   1
                l(4) =   1
                l(5) =   2
                l(6) =   2

     PseudoPot. # 2 for S  read from file:
     ../pseudo/s_pbe_v1.4.uspp.F.UPF
     MD5 check sum: 88d86576ff6df21479756cfb9bdac1df
     Pseudo is Ultrasoft + core correction, Zval =  6.0
     Generated by new atomic code, or converted to UPF format
     Using radial grid of  907 points,  6 beta functions with:
                l(1) =   0
                l(2) =   0
                l(3) =   1
                l(4) =   1
                l(5) =   2
                l(6) =   2
     Q(r) pseudized with  8 coefficients,  rinner =    1.300   1.300   1.300
                                                       1.300   1.300

     PseudoPot. # 3 for H  read from file:
     ../pseudo/H_ONCV_PBE-1.0.oncvpsp.upf
     MD5 check sum: 1790becc920ee074925cf490c71280fe
     Pseudo is Norm-conserving, Zval =  1.0
     Generated using ONCVPSP code by D. R. Hamann
     Using radial grid of 1166 points,  2 beta functions with:
                l(1) =   0
                l(2) =   0

     atomic species   valence    mass     pseudopotential
        Mo            14.00    95.94000     Mo( 1.00)
        S              6.00    32.06500     S ( 1.00)
        H              1.00     1.00794     H ( 1.00)

     No symmetry found

   Cartesian axes

     site n.     atom                  positions (alat units)
         1           Mo  tau(   1) = (   0.6952221   0.1890506   0.2985846  )
         2           S   tau(   2) = (   0.8646417   0.0856217   0.4689279  )
         3           S   tau(   3) = (   0.8663890   0.0857843   0.1351291  )
         4           Mo  tau(   4) = (   0.8560186   0.4753274   0.2873942  )
         5           S   tau(   5) = (   0.6873294   0.3936244   0.4596353  )
         6           S   tau(   6) = (   0.6929804   0.3713468   0.1185692  )
         7           Mo  tau(   7) = (   0.6862796   0.7633098   0.2825370  )
         8           S   tau(   8) = (   0.8545980   0.6708292   0.4486168  )
         9           S   tau(   9) = (   0.8545123   0.6666874   0.1146125  )
        10           Mo  tau(  10) = (   0.8629403   1.0471007   0.3006803  )
        11           S   tau(  11) = (   0.6868280   0.9456650   0.4634891  )
        12           S   tau(  12) = (   0.6998113   0.9568511   0.1205389  )
        13           Mo  tau(  13) = (   0.3618216   0.1847309   0.2935964  )
        14           S   tau(  14) = (   0.5260962   0.0863870   0.4600448  )
        15           S   tau(  15) = (   0.5348379   0.0894875   0.1297123  )
        16           Mo  tau(  16) = (   0.5265817   0.4772436   0.2784130  )
        17           S   tau(  17) = (   0.3624753   0.3882513   0.4525556  )
        18           S   tau(  18) = (   0.3635411   0.3752055   0.1119148  )
        19           Mo  tau(  19) = (   0.3652268   0.7630864   0.2781795  )
        20           S   tau(  20) = (   0.5269494   0.6690381   0.1096838  )
        21           Mo  tau(  21) = (   0.5300192   1.0470394   0.2900995  )
        22           S   tau(  22) = (   0.3670346   0.9457522   0.4574073  )
        23           S   tau(  23) = (   0.3604225   0.9585725   0.1159032  )
        24           Mo  tau(  24) = (   0.0313099   0.1847895   0.3013130  )
        25           S   tau(  25) = (   0.1956761   0.0838230   0.4650863  )
        26           S   tau(  26) = (   0.1967693   0.0903508   0.1278874  )
        27           Mo  tau(  27) = (   0.1967578   0.4753919   0.2813011  )
        28           S   tau(  28) = (   0.0287851   0.3864324   0.4586755  )
        29           S   tau(  29) = (   0.0244514   0.3729871   0.1239344  )
        30           Mo  tau(  30) = (   0.0286728   0.7631204   0.2856894  )
        31           S   tau(  31) = (   0.2011512   0.6675435   0.4465001  )
        32           S   tau(  32) = (   0.1969214   0.6672839   0.1104564  )
        33           Mo  tau(  33) = (   0.1950294   1.0511147   0.2932237  )
        34           S   tau(  34) = (   0.0312912   0.9612169   0.4667423  )
        35           S   tau(  35) = (   0.0292670   0.9563028   0.1216485  )
        36           H   tau(  36) = (   0.8888889   0.8988550   0.5656742  )

     number of k points=     1  Gaussian smearing, width (Ry)=  0.0100
                       cart. coord. in units 2pi/alat
        k(    1) = (   0.0000000   0.0000000   0.0000000), wk =   2.0000000

     Initial potential from superposition of free atoms

     starting charge     306.9873, renormalised to     307.0000

     negative rho (up, down):  1.410E-04 0.000E+00

Carrying out rVV10 run using the following parameters:
Nqs =      20    Nr_points =    1024   r_max =   100.000
b_value =  6.30000    beta =  0.00901
     q_mesh =  0.00010000  0.00030000  0.00058939  0.00100810
               0.00161396  0.00249058  0.00375900  0.00559430
               0.00824984  0.01209221  0.01765183  0.02569619
               0.03733578  0.05417739  0.07854596  0.11380545
               0.16482331  0.23864234  0.34545298  0.50000000

Gradients computed in Reciprocal space

     Starting wfcs are  213 randomized atomic wfcs

     Self-consistent Calculation

     iteration #  1     ecut=    80.00 Ry     beta= 0.70
     Davidson diagonalization with overlap
     ethr =  1.00E-02,  avg # of iterations =  2.0

     Threshold (ethr) on eigenvalues was too large:
     Diagonalizing with lowered threshold

     Davidson diagonalization with overlap
     ethr =  3.56E-04,  avg # of iterations =  4.0

[...]

     total energy              =   -2205.58480073 Ry
     estimated scf accuracy    <       1.37814784 Ry

[...]

     iteration #  8     ecut=    80.00 Ry     beta= 0.70
     Davidson diagonalization with overlap
     c_bands:  1 eigenvalues not converged
     ethr =  2.20E-06,  avg # of iterations = 20.0

[...]

     End of self-consistent calculation

          k = 0.0000 0.0000 0.0000 (105382 PWs)   bands (ev):

   -62.8947 -62.8908 -62.8741 -62.8646 -62.8439 -62.8174 -62.8102 -62.8053
   -62.7990 -62.7925 -62.7814 -62.7682 -37.2432 -37.1719 -37.1615 -37.1522
   -37.1434 -37.1162 -37.0935 -37.0804 -37.0770 -37.0739 -37.0720 -37.0521
   -37.0432 -37.0394 -37.0237 -37.0161 -37.0153 -37.0098 -36.9951 -36.9881
   -36.9826 -36.9658 -36.9565 -36.9456 -36.9412 -36.9346 -36.9242 -36.9098
   -36.9055 -36.8936 -36.8781 -36.8545 -36.8475 -36.8121 -36.7630 -36.7293
   -16.0307 -15.3107 -15.1427 -15.0143 -14.9810 -14.8480 -14.6257 -14.5072
   -14.4820 -14.4464 -14.4236 -14.3546 -14.3360 -14.2856 -14.1911 -14.1613
   -14.1217 -14.1051 -14.0298 -13.9558 -13.8564 -13.8332 -13.8096  -8.0744
    -7.6198  -7.4686  -7.3230  -7.2684  -7.2152  -7.2067  -7.1257  -7.0208
    -6.8456  -6.8110  -6.7535  -6.7026  -6.6135  -6.5274  -6.5084  -6.4509
    -6.2801  -6.2495  -6.0627  -5.9962  -5.9262  -5.8976  -5.8381  -5.8324
    -5.7655  -5.7286  -5.6983  -5.6626  -5.6212  -5.5555  -5.5378  -5.4642
    -5.4294  -5.4140  -5.2163  -5.1326  -5.1110  -5.0311  -4.9946  -4.9477
    -4.9252  -4.8526  -4.6580  -4.5315  -4.3872  -4.3643  -4.3138  -4.2716
    -4.1821  -4.1271  -4.0466  -3.8559  -3.8102  -3.8013  -3.7655  -3.7221
    -3.6975  -3.6094  -3.5498  -3.5104  -3.4941  -3.4752  -3.4469  -3.3860
    -3.3692  -3.2193  -3.1529  -2.9192  -2.8877  -2.8362  -2.7720  -2.7491
    -2.7182  -2.6656  -2.6493  -2.6408  -2.5830  -2.2950  -2.0625  -2.0007
    -1.9367  -1.1348  -0.8258  -0.6706  -0.1901  -0.1516  -0.1132  -0.0195
     0.0325   0.1146   0.1912   0.2219   0.2260   0.2708   0.3468   0.4042
     0.4555   0.5056   0.5346   0.5618   0.5943   0.6528   0.6944   0.7385
     0.7701   0.7722   0.8383   0.8863   0.9438   0.9709   1.0471   1.2575
     1.3860

     the Fermi energy is    -1.1350 ev

!    total energy              =   -2205.51633350 Ry
     estimated scf accuracy    <       0.00000042 Ry
     smearing contrib. (-TS)   =      -0.00567419 Ry
     internal energy E=F+TS    =   -2205.51065931 Ry

     The total energy is F=E-TS. E is the sum of the following terms:
     one-electron contribution =  -18047.06057721 Ry
     hartree contribution      =    9010.17524288 Ry
     xc contribution           =    -385.22582924 Ry
     ewald contribution        =    7216.60050426 Ry

     convergence has been achieved in  14 iterations

[...]

     Forces acting on atoms (cartesian axes, Ry/au):

[...]
     atom    3 type  2   force =     0.07982302   -0.10187873  -37.35763207
     atom    4 type  1   force =    -0.06509103    0.09172420    0.34415499
     atom    5 type  2   force =    -0.85919868    1.05721485   38.22489775
     atom    6 type  2   force =     0.19200061   -0.30102893  -37.96501138
     atom    7 type  1   force =    -3.02650269   -2.28335681    1.89954378
     atom    8 type  2   force =    -1.47040247   -0.47367102   38.12565638
     atom    9 type  2   force =     0.42053628    0.00330164  -37.86793566
     atom   10 type  1   force =     0.20043954    0.09274022    3.85556740
     atom   11 type  2   force =    -1.12457945   -1.30049016   38.26731280
     atom   12 type  2   force =     0.27014054    0.34366146  -38.01999171
     atom   13 type  1   force =     0.24465003    0.82225978    2.32423293
     atom   14 type  2   force =    -0.07255399   -0.00355278   38.42328212
     atom   15 type  2   force =     0.10640127   -0.04002929  -37.57046555
     atom   16 type  1   force =     0.08815288    3.46498172    1.94162905
     atom   17 type  2   force =     0.86855741    1.07565952   38.46781273
     atom   18 type  2   force =    -0.21802792   -0.20191928  -38.00555702
     atom   19 type  1   force =     2.53357803   -1.83594069    2.84624474
     atom   20 type  2   force =    -0.02517784   -0.04888720  -38.51365884
     atom   21 type  1   force =    -0.04141623   -0.21975667    0.26112661
     atom   22 type  2   force =     0.19180570   -1.29719537   38.16322931
     atom   23 type  2   force =    -0.17311327    0.01250413  -38.22424465
     atom   24 type  1   force =    -0.22935042    0.52705350    2.09686635
     atom   25 type  2   force =     0.19769842   -0.09948118   38.73399585
     atom   26 type  2   force =    -0.18638873    0.15882399  -38.04266904
     atom   27 type  1   force =     0.04764423    0.35519822    1.23578230
     atom   28 type  2   force =    -0.02935758    0.35666217   38.04684894
     atom   29 type  2   force =    -0.01997017   -0.03780830  -37.40831877
     atom   30 type  1   force =     0.85733263   -0.31143878    3.55036781
     atom   31 type  2   force =     1.41646713    0.10300419   38.29097629
     atom   32 type  2   force =    -0.45006547    0.08416630  -37.56730264
     atom   33 type  1   force =    -0.62824245   -1.29829428    0.60378851
     atom   34 type  2   force =     1.87580111    0.65168906   38.61876886
     atom   35 type  2   force =    -0.05967821   -0.04189738  -36.91404717
     atom   36 type  3   force =    -0.73295880   -0.45186098    8.29038290
     The local contribution  to forces
     atom    1 type  1   force =     0.05497934   -0.80563108   -2.13288498
     atom    2 type  2   force =     0.12895427   -0.34992814  -38.46457595
     atom    3 type  2   force =    -0.07668838    0.11129499   37.11177545
     atom    4 type  1   force =     0.06309536   -0.09636070   -0.34519134
     atom    5 type  2   force =     0.85568976   -1.03569462  -37.99101685
     atom    6 type  2   force =    -0.19069830    0.30388170   37.71883808
     atom    7 type  1   force =     3.04030841    2.28295766   -1.87942251
     atom    8 type  2   force =     1.46758501    0.46380141  -37.89325255
     atom    9 type  2   force =    -0.41295677    0.00636843   37.61722668
     atom   10 type  1   force =    -0.20870913   -0.09704492   -3.85731454
     atom   11 type  2   force =     1.11895132    1.30308221  -38.04423801
     atom   12 type  2   force =    -0.26023596   -0.33128007   37.77735456
     atom   13 type  1   force =    -0.24498540   -0.84274068   -2.31959146
     atom   14 type  2   force =     0.07139370    0.01300369  -38.17595711
     atom   15 type  2   force =    -0.10501998    0.05091932   37.32723063
     atom   16 type  1   force =    -0.09122068   -3.50079741   -1.90920558
     atom   17 type  2   force =    -0.86350509   -1.05757357  -38.23608582
     atom   18 type  2   force =     0.21913803    0.20555315   37.76147970
     atom   19 type  1   force =    -2.55459225    1.83462840   -2.82387884
     atom   20 type  2   force =     0.02314867    0.05885897   38.26929979
     atom   21 type  1   force =     0.04329705    0.19370835   -0.26916607
     atom   22 type  2   force =    -0.19723778    1.30306270  -37.93627445
     atom   23 type  2   force =     0.16483639   -0.00634859   37.97995468
     atom   24 type  1   force =     0.22675816   -0.54201393   -2.09659345
     atom   25 type  2   force =    -0.20249079    0.09365912  -38.49962908
     atom   26 type  2   force =     0.18286459   -0.14557955   37.79739652
     atom   27 type  1   force =    -0.04505958   -0.35908052   -1.23846440
     atom   28 type  2   force =     0.02732155   -0.34500561  -37.79289912
     atom   29 type  2   force =     0.02069378    0.04688916   37.16001942
     atom   30 type  1   force =    -0.85972749    0.28790256   -3.55081644
     atom   31 type  2   force =    -1.40410941   -0.10520004  -38.05156574
     atom   32 type  2   force =     0.44079808   -0.06995169   37.31991402
     atom   33 type  1   force =     0.63711448    1.29901785   -0.61197913
     atom   34 type  2   force =    -1.64655635   -0.52192412  -38.59697269
     atom   35 type  2   force =     0.05836843    0.05398210   36.66654846
     atom   36 type  3   force =     0.70139968    0.43313200   -8.25348716
     The core correction contribution to forces
     atom    1 type  1   force =     0.00000000    0.00000000    0.00000000
     atom    2 type  2   force =    -0.00000062    0.00104969    0.02051281
     atom    3 type  2   force =     0.00017837    0.00018844   -0.02090350
     atom    4 type  1   force =     0.00000000    0.00000000    0.00000000
     atom    5 type  2   force =    -0.00034244    0.00094287    0.02032365
     atom    6 type  2   force =     0.00017568   -0.00030511   -0.02085186
     atom    7 type  1   force =     0.00000000    0.00000000    0.00000000
     atom    8 type  2   force =    -0.00044889   -0.00055869    0.01997452
     atom    9 type  2   force =     0.00081427    0.00059101   -0.02103966
     atom   10 type  1   force =     0.00000000    0.00000000    0.00000000
     atom   11 type  2   force =    -0.00056818   -0.00006188    0.01973550
     atom   12 type  2   force =     0.00084435    0.00103910   -0.02080251
     atom   13 type  1   force =     0.00000000    0.00000000    0.00000000
     atom   14 type  2   force =    -0.00011333    0.00006953    0.02082205
     atom   15 type  2   force =    -0.00000694    0.00050533   -0.02065760
     atom   16 type  1   force =     0.00000000    0.00000000    0.00000000
     atom   17 type  2   force =     0.00053338    0.00079279    0.02027192
     atom   18 type  2   force =    -0.00012672   -0.00021531   -0.02082428
     atom   19 type  1   force =     0.00000000    0.00000000    0.00000000
     atom   20 type  2   force =    -0.00016992    0.00044480   -0.02127932
     atom   21 type  1   force =     0.00000000    0.00000000    0.00000000
     atom   22 type  2   force =    -0.00055079    0.00021719    0.02005062
     atom   23 type  2   force =    -0.00053056    0.00036994   -0.02088952
     atom   24 type  1   force =     0.00000000    0.00000000    0.00000000
     atom   25 type  2   force =    -0.00008289   -0.00042982    0.02030821
     atom   26 type  2   force =    -0.00016070    0.00094040   -0.02095158
     atom   27 type  1   force =     0.00000000    0.00000000    0.00000000
     atom   28 type  2   force =    -0.00019068    0.00074801    0.02102782
     atom   29 type  2   force =     0.00005373    0.00025544   -0.02078259
     atom   30 type  1   force =     0.00000000    0.00000000    0.00000000
     atom   31 type  2   force =     0.00073983    0.00013052    0.02052318
     atom   32 type  2   force =    -0.00096507    0.00075066   -0.02088010
     atom   33 type  1   force =     0.00000000    0.00000000    0.00000000
     atom   34 type  2   force =     0.01591321    0.00902745    0.00370692
     atom   35 type  2   force =    -0.00026094    0.00058031   -0.02111927
     atom   36 type  3   force =     0.00000000    0.00000000    0.00000000
     The Hubbard contrib.    to forces
     atom    1 type  1   force =     0.00000000    0.00000000    0.00000000
     atom    2 type  2   force =     0.00000000    0.00000000    0.00000000
     atom    3 type  2   force =     0.00000000    0.00000000    0.00000000
     atom    4 type  1   force =     0.00000000    0.00000000    0.00000000
     atom    5 type  2   force =     0.00000000    0.00000000    0.00000000
     atom    6 type  2   force =     0.00000000    0.00000000    0.00000000
     atom    7 type  1   force =     0.00000000    0.00000000    0.00000000
     atom    8 type  2   force =     0.00000000    0.00000000    0.00000000
     atom    9 type  2   force =     0.00000000    0.00000000    0.00000000
     atom   10 type  1   force =     0.00000000    0.00000000    0.00000000
     atom   11 type  2   force =     0.00000000    0.00000000    0.00000000
     atom   12 type  2   force =     0.00000000    0.00000000    0.00000000
     atom   13 type  1   force =     0.00000000    0.00000000    0.00000000
     atom   14 type  2   force =     0.00000000    0.00000000    0.00000000
     atom   15 type  2   force =     0.00000000    0.00000000    0.00000000
     atom   16 type  1   force =     0.00000000    0.00000000    0.00000000
     atom   17 type  2   force =     0.00000000    0.00000000    0.00000000
     atom   18 type  2   force =     0.00000000    0.00000000    0.00000000
     atom   19 type  1   force =     0.00000000    0.00000000    0.00000000
     atom   20 type  2   force =     0.00000000    0.00000000    0.00000000
     atom   21 type  1   force =     0.00000000    0.00000000    0.00000000
     atom   22 type  2   force =     0.00000000    0.00000000    0.00000000
     atom   23 type  2   force =     0.00000000    0.00000000    0.00000000
     atom   24 type  1   force =     0.00000000    0.00000000    0.00000000
     atom   25 type  2   force =     0.00000000    0.00000000    0.00000000
     atom   26 type  2   force =     0.00000000    0.00000000    0.00000000
     atom   27 type  1   force =     0.00000000    0.00000000    0.00000000
     atom   28 type  2   force =     0.00000000    0.00000000    0.00000000
     atom   29 type  2   force =     0.00000000    0.00000000    0.00000000
     atom   30 type  1   force =     0.00000000    0.00000000    0.00000000
     atom   31 type  2   force =     0.00000000    0.00000000    0.00000000
     atom   32 type  2   force =     0.00000000    0.00000000    0.00000000
     atom   33 type  1   force =     0.00000000    0.00000000    0.00000000
     atom   34 type  2   force =     0.00000000    0.00000000    0.00000000
     atom   35 type  2   force =     0.00000000    0.00000000    0.00000000
     atom   36 type  3   force =     0.00000000    0.00000000    0.00000000
     The SCF correction term to forces
     atom    1 type  1   force =    -0.00000306   -0.00001281    0.00005806
     atom    2 type  2   force =    -0.00000521   -0.00001231    0.00002398
     atom    3 type  2   force =    -0.00000309   -0.00000606    0.00001142
     atom    4 type  1   force =     0.00000241    0.00002919    0.00000613
     atom    5 type  2   force =    -0.00000984    0.00000184    0.00002975
     atom    6 type  2   force =     0.00000685    0.00001317    0.00000158
     atom    7 type  1   force =     0.00001059   -0.00001903    0.00002212
     atom    8 type  2   force =     0.00000321    0.00000731    0.00002003
     atom    9 type  2   force =     0.00000516   -0.00000068   -0.00000184
     atom   10 type  1   force =     0.00000450   -0.00000718    0.00004756
     atom   11 type  2   force =     0.00001071    0.00000211    0.00003014
     atom   12 type  2   force =     0.00000738   -0.00000685   -0.00000507
     atom   13 type  1   force =     0.00001066    0.00000553    0.00007126
     atom   14 type  2   force =    -0.00000759    0.00000823    0.00002742
     atom   15 type  2   force =    -0.00000424    0.00000135    0.00001696
     atom   16 type  1   force =    -0.00000897    0.00002375    0.00005263
     atom   17 type  2   force =     0.00000348   -0.00000181    0.00002333
     atom   18 type  2   force =    -0.00000180    0.00000567    0.00001558
     atom   19 type  1   force =    -0.00001319   -0.00002644    0.00003483
     atom   20 type  2   force =     0.00000523    0.00000117   -0.00000409
     atom   21 type  1   force =     0.00001665    0.00000615    0.00004783
     atom   22 type  2   force =    -0.00000919   -0.00000277    0.00004246
     atom   23 type  2   force =     0.00000231   -0.00001303   -0.00001123
     atom   24 type  1   force =    -0.00000856   -0.00000844    0.00003861
     atom   25 type  2   force =     0.00001245   -0.00000141    0.00003365
     atom   26 type  2   force =     0.00000802    0.00000445    0.00001055
     atom   27 type  1   force =     0.00001505    0.00002195    0.00004039
     atom   28 type  2   force =     0.00000584    0.00000650    0.00002473
     atom   29 type  2   force =    -0.00000497    0.00001519   -0.00000415
     atom   30 type  1   force =     0.00000246   -0.00000734    0.00003079
     atom   31 type  2   force =     0.00000028    0.00000586    0.00002794
     atom   32 type  2   force =    -0.00000950   -0.00000075   -0.00000018
     atom   33 type  1   force =    -0.00000818   -0.00001219    0.00006332
     atom   34 type  2   force =    -0.00000335    0.00000092    0.00003123
     atom   35 type  2   force =    -0.00001318   -0.00001481    0.00000918
     atom   36 type  3   force =     0.00000022    0.00000169    0.00000336

     Total force =     0.005821     Total SCF correction =     0.000208
     Energy error            =      8.2E-05 Ry
     Gradient error          =      1.8E-03 Ry/Bohr

     bfgs converged in  18 scf cycles and  17 bfgs steps
     (criteria: energy <  1.0E-04 Ry, force <  1.0E-02 Ry/Bohr)

     End of BFGS Geometry Optimization

     Final energy             =   -2205.5766390049 Ry

     File ./MoS2-V-O.bfgs deleted, as requested
Begin final coordinates

ATOMIC_POSITIONS (angstrom)
Mo            6.5592000642        1.7552818490        2.7512782094
S             8.1258256139        0.8612817111        4.3683519695
S             8.1384595531        0.8302549183        1.1785623896
Mo            8.1168762171        4.4996905863        2.7119063046
S             6.5203205802        3.6595259088        4.3031277104
S             6.5586171202        3.5658957994        1.1123820500
Mo            6.5142380907        7.1955493402        2.6651164561
S             8.0574119811        6.2965494768        4.3178044183
S             8.1506625855        6.3328526255        1.1195710833
Mo            8.1267550786        9.9286223057        2.7964803899
S             6.4878650933        8.9537276134        4.3178813403
S             6.6005942767        9.0378125607        1.1208439059
Mo            3.4237792992        1.7734539232        2.7485019968
S             4.9863566349        0.8157716621        4.3312029767
S             4.9881390935        0.8463002042        1.1585535748
Mo            4.9907130730        4.5435807605        2.6582019151
S             3.4695512513        3.6712814448        4.3170507125
S             3.4313691634        3.5835126301        1.1115321360
Mo            3.4599590438        7.1897555306        2.6736575258
S             4.9871846085        6.3225460467        1.0482805247
Mo            4.9813793244        9.9086000269        2.7142069051
S             3.4408726048        8.9719479262        4.2993266428
S             3.3950818232        9.0244543437        1.0993913122
Mo            0.2725858512        1.7309820440        2.7605058874
S             1.8611897624        0.8470791419        4.3547061230
S             1.8597958305        0.8647874492        1.1371786807
Mo            1.8645393039        4.4988908334        2.7266957762
S             0.2596214956        3.5992835957        4.3153618244
S             0.2650471072        3.5608779223        1.1565887796
Mo            0.2497079982        7.2188607644        2.7807658100
S             1.9138576508        6.3058302116        4.3207266144
S             1.8308183986        6.3275190193        1.1336461782
Mo            1.8669664078        9.9760588387        2.7071316860
S             0.1535065318        8.9668600905        4.5188203793
S             0.2542202171        9.0481062540        1.2029752967
H             8.7152871714        8.4678166071        5.4880073341
End final coordinates

     Writing all to output data dir ./MoS2-V-O.save/

     General routines

     Parallel routines

   This run was terminated on:   9: 0:40   4Nov2023

   JOB DONE.