     Program PWSCF v.7.2 starts on  4Nov2023 at  7:43:20

     Waiting for input...
     Reading input from standard input
Warning: card &CELL ignored
Warning: card CELL_DYNAMICS = 'BFGS', ignored
Warning: card CELL_DOFREE = '2DXY' ignored
Warning: card / ignored

     Current dimensions of program PWSCF are:
     Max number of different atomic species (ntypx) = 10
     Max number of k-points (npk) =  40000
     Max angular momentum in pseudopotentials (lmaxx) =  4

     IMPORTANT: XC functional enforced from input :
     Exchange-correlation= RVV10
                           (   1   4  13   4  26   0   0)
     Any further DFT definition will be discarded
     Please, verify this is what you really want

     gamma-point specific algorithms are used
     signal trapping enabled: kill the code with -SIGUSR1 to stop cleanly the simulation

     R & G space division:  proc/nbgrp/npool/nimage =      48
     Subspace diagonalization in iterative solution of the eigenvalue problem:
     one sub-group per band group will be used

     Using Slab Decomposition

     bravais-lattice index     =            0
     lattice parameter (alat)  =      17.8707  a.u.
     unit-cell volume          =   17436.2743 (a.u.)^3
     number of atoms/cell      =           36
     number of atomic types    =            3
     number of electrons       =       307.00
     number of Kohn-Sham states=          185
     kinetic-energy cutoff     =      80.0000  Ry
     charge density cutoff     =     400.0000  Ry
     scf convergence threshold =      1.0E-06
     mixing beta               =       0.7000
     number of iterations used =            8  local-TF  mixing
     energy convergence thresh.=      1.0E-04
     force convergence thresh. =      1.0E-02
     Exchange-correlation= RVV10
                           (   1   4  13   4  26   0   0)
     nstep                     =          200

     celldm(1)=  17.870686  celldm(2)=   0.000000  celldm(3)=   0.000000
     celldm(4)=   0.000000  celldm(5)=   0.000000  celldm(6)=   0.000000

     crystal axes: (cart. coord. in units of alat)
               a(1) = (   1.000000   0.000000   0.000000 )
               a(2) = (   0.000000   1.155671   0.000000 )
               a(3) = (   0.000000   0.000000   2.643601 )

     reciprocal axes: (cart. coord. in units 2 pi/alat)
               b(1) = (  1.000000  0.000000  0.000000 )
               b(2) = (  0.000000  0.865298  0.000000 )
               b(3) = (  0.000000  0.000000  0.378272 )

     PseudoPot. # 1 for Mo read from file:
     ../pseudo/Mo_ONCV_PBE-1.0.oncvpsp.upf
     MD5 check sum: 1b5d28e075c9ccadda658a603575cd1f
     Pseudo is Norm-conserving, Zval = 14.0
     Generated using ONCVPSP code by D. R. Hamann
     Using radial grid of 1526 points,  6 beta functions with:
                l(1) =   0
                l(2) =   0
                l(3) =   1
                l(4) =   1
                l(5) =   2
                l(6) =   2

     PseudoPot. # 2 for S  read from file:
     ../pseudo/s_pbe_v1.4.uspp.F.UPF
     MD5 check sum: 88d86576ff6df21479756cfb9bdac1df
     Pseudo is Ultrasoft + core correction, Zval =  6.0
     Generated by new atomic code, or converted to UPF format
     Using radial grid of  907 points,  6 beta functions with:
                l(1) =   0
                l(2) =   0
                l(3) =   1
                l(4) =   1
                l(5) =   2
                l(6) =   2
     Q(r) pseudized with  8 coefficients,  rinner =    1.300   1.300   1.300
                                                       1.300   1.300

     PseudoPot. # 3 for H  read from file:
     ../pseudo/H_ONCV_PBE-1.0.oncvpsp.upf
     MD5 check sum: 1790becc920ee074925cf490c71280fe
     Pseudo is Norm-conserving, Zval =  1.0
     Generated using ONCVPSP code by D. R. Hamann
     Using radial grid of 1166 points,  2 beta functions with:
                l(1) =   0
                l(2) =   0

     atomic species   valence    mass     pseudopotential
        Mo            14.00    95.94000     Mo( 1.00)
        S              6.00    32.06500     S ( 1.00)
        H              1.00     1.00794     H ( 1.00)

     No symmetry found

   Cartesian axes

     site n.     atom                  positions (alat units)
         1           Mo  tau(   1) = (   0.6952221   0.1890506   0.2985846  )
         2           S   tau(   2) = (   0.8646417   0.0856217   0.4689279  )
         3           S   tau(   3) = (   0.8663890   0.0857843   0.1351291  )
         4           Mo  tau(   4) = (   0.8560186   0.4753274   0.2873942  )
         5           S   tau(   5) = (   0.6873294   0.3936244   0.4596353  )
         6           S   tau(   6) = (   0.6929804   0.3713468   0.1185692  )
         7           Mo  tau(   7) = (   0.6862796   0.7633098   0.2825370  )
         8           S   tau(   8) = (   0.8545980   0.6708292   0.4486168  )
         9           S   tau(   9) = (   0.8545123   0.6666874   0.1146125  )
        10           Mo  tau(  10) = (   0.8629403   1.0471007   0.3006803  )
        11           S   tau(  11) = (   0.6868280   0.9456650   0.4634891  )
        12           S   tau(  12) = (   0.6998113   0.9568511   0.1205389  )
        13           Mo  tau(  13) = (   0.3618216   0.1847309   0.2935964  )
        14           S   tau(  14) = (   0.5260962   0.0863870   0.4600448  )
        15           S   tau(  15) = (   0.5348379   0.0894875   0.1297123  )
        16           Mo  tau(  16) = (   0.5265817   0.4772436   0.2784130  )
        17           S   tau(  17) = (   0.3624753   0.3882513   0.4525556  )
        18           S   tau(  18) = (   0.3635411   0.3752055   0.1119148  )
        19           Mo  tau(  19) = (   0.3652268   0.7630864   0.2781795  )
        20           S   tau(  20) = (   0.5269494   0.6690381   0.1096838  )
        21           Mo  tau(  21) = (   0.5300192   1.0470394   0.2900995  )
        22           S   tau(  22) = (   0.3670346   0.9457522   0.4574073  )
        23           S   tau(  23) = (   0.3604225   0.9585725   0.1159032  )
        24           Mo  tau(  24) = (   0.0313099   0.1847895   0.3013130  )
        25           S   tau(  25) = (   0.1956761   0.0838230   0.4650863  )
        26           S   tau(  26) = (   0.1967693   0.0903508   0.1278874  )
        27           Mo  tau(  27) = (   0.1967578   0.4753919   0.2813011  )
        28           S   tau(  28) = (   0.0287851   0.3864324   0.4586755  )
        29           S   tau(  29) = (   0.0244514   0.3729871   0.1239344  )
        30           Mo  tau(  30) = (   0.0286728   0.7631204   0.2856894  )
        31           S   tau(  31) = (   0.2011512   0.6675435   0.4465001  )
        32           S   tau(  32) = (   0.1969214   0.6672839   0.1104564  )
        33           Mo  tau(  33) = (   0.1950294   1.0511147   0.2932237  )
        34           S   tau(  34) = (   0.0312912   0.9612169   0.4667423  )
        35           S   tau(  35) = (   0.0292670   0.9563028   0.1216485  )
        36           H   tau(  36) = (   0.3333333   0.8988550   0.5792558  )

     number of k points=     1  Gaussian smearing, width (Ry)=  0.0100
                       cart. coord. in units 2pi/alat
        k(    1) = (   0.0000000   0.0000000   0.0000000), wk =   2.0000000

     Initial potential from superposition of free atoms

     starting charge     306.9873, renormalised to     307.0000

     negative rho (up, down):  1.402E-04 0.000E+00

Carrying out rVV10 run using the following parameters:
Nqs =      20    Nr_points =    1024   r_max =   100.000
b_value =  6.30000    beta =  0.00901
     q_mesh =  0.00010000  0.00030000  0.00058939  0.00100810
               0.00161396  0.00249058  0.00375900  0.00559430
               0.00824984  0.01209221  0.01765183  0.02569619
               0.03733578  0.05417739  0.07854596  0.11380545
               0.16482331  0.23864234  0.34545298  0.50000000

Gradients computed in Reciprocal space

     Starting wfcs are  213 randomized atomic wfcs

     Self-consistent Calculation

     iteration #  1     ecut=    80.00 Ry     beta= 0.70
     Davidson diagonalization with overlap
     ethr =  1.00E-02,  avg # of iterations =  2.0

     Threshold (ethr) on eigenvalues was too large:
     Diagonalizing with lowered threshold

     Davidson diagonalization with overlap
     ethr =  3.87E-04,  avg # of iterations =  4.0

[...]

     total energy              =   -2205.62949691 Ry
     estimated scf accuracy    <       1.46909455 Ry

[...]

     iteration #  8     ecut=    80.00 Ry     beta= 0.70
     Davidson diagonalization with overlap
     c_bands:  1 eigenvalues not converged
     ethr =  3.07E-06,  avg # of iterations = 20.0

[...]

     iteration #  9     ecut=    80.00 Ry     beta= 0.70
     Davidson diagonalization with overlap
     c_bands:  1 eigenvalues not converged
     ethr =  1.53E-06,  avg # of iterations = 20.0

[...]

     End of self-consistent calculation

          k = 0.0000 0.0000 0.0000 (105382 PWs)   bands (ev):

   -62.8957 -62.8368 -62.8044 -62.7800 -62.7645 -62.7496 -62.7448 -62.7248
   -62.7063 -62.5753 -62.5405 -62.4975 -37.1747 -37.1487 -37.0993 -37.0964
   -37.0682 -37.0513 -37.0469 -37.0232 -37.0048 -36.9899 -36.9882 -36.9704
   -36.9491 -36.9425 -36.9338 -36.9298 -36.9219 -36.9180 -36.9053 -36.8959
   -36.8727 -36.8623 -36.8588 -36.8381 -36.8117 -36.7935 -36.7840 -36.7467
   -36.7429 -36.7337 -36.7171 -36.7018 -36.6687 -36.6530 -36.5503 -36.4941
   -16.6281 -15.7448 -15.0451 -15.0125 -14.8621 -14.7679 -14.6408 -14.4088
   -14.3691 -14.3422 -14.3034 -14.2617 -14.2469 -14.2116 -14.0835 -14.0484
   -14.0256 -14.0058 -13.9364 -13.8226 -13.7586 -13.7315 -13.6969  -9.4927
    -7.5911  -7.3552  -7.2567  -7.2497  -7.1929  -7.1287  -7.1056  -7.0265
    -6.7839  -6.7110  -6.6899  -6.6505  -6.5734  -6.4423  -6.3924  -6.3756
    -6.3004  -6.1708  -6.1656  -5.9046  -5.8755  -5.8276  -5.7478  -5.7031
    -5.6932  -5.6340  -5.5915  -5.5660  -5.5381  -5.4444  -5.4323  -5.3959
    -5.3810  -5.2946  -5.1433  -5.1012  -4.9866  -4.9373  -4.8876  -4.8786
    -4.8146  -4.7552  -4.6847  -4.5179  -4.4111  -4.2634  -4.2171  -4.1775
    -4.1299  -4.0006  -3.9313  -3.7652  -3.7549  -3.7230  -3.6515  -3.6282
    -3.5849  -3.4811  -3.4618  -3.4347  -3.4086  -3.3729  -3.3526  -3.2875
    -3.2676  -3.1360  -3.0551  -2.8541  -2.8303  -2.7835  -2.6723  -2.6527
    -2.6274  -2.5702  -2.5604  -2.5453  -2.4567  -2.1693  -1.9201  -1.9004
    -1.8269  -0.7436  -0.6655  -0.2502  -0.1265  -0.0424  -0.0252   0.0277
     0.0868   0.2322   0.2367   0.2442   0.3365   0.3793   0.4706   0.5477
     0.5760   0.6018   0.6505   0.6759   0.7435   0.7554   0.7702   0.8169
     0.8362   0.8772   0.9343   0.9714   1.0393   1.0584   1.1330   1.2432
     1.4461

     the Fermi energy is    -0.7750 ev

!    total energy              =   -2205.54682368 Ry
     estimated scf accuracy    <       0.00000078 Ry
     smearing contrib. (-TS)   =      -0.00830346 Ry
     internal energy E=F+TS    =   -2205.53852023 Ry

     The total energy is F=E-TS. E is the sum of the following terms:
     one-electron contribution =  -18045.61441828 Ry
     hartree contribution      =    9010.38784119 Ry
[...]
     atom    3 type  2   force =     0.05400714   -0.15371145  -37.56367420
     atom    4 type  1   force =     0.05521683    0.67094687    0.49661784
     atom    5 type  2   force =    -0.87349837    1.20095294   38.68820482
     atom    6 type  2   force =     0.17514761   -0.29350223  -38.25317107
     atom    7 type  1   force =    -2.83765986   -1.12361956    3.10914532
     atom    8 type  2   force =    -1.05409902    0.27401288   38.28251285
     atom    9 type  2   force =     0.32137112    0.16390069  -37.91753824
     atom   10 type  1   force =    -0.75981042   -0.75968893    2.54587542
     atom   11 type  2   force =    -0.41567063   -1.58634809   38.22700098
     atom   12 type  2   force =     0.15266856    0.03730048  -37.62287537
     atom   13 type  1   force =     0.07495098    0.95573286    2.56018999
     atom   14 type  2   force =     0.09787374    0.09868576   38.68847717
     atom   15 type  2   force =    -0.00011814   -0.07192524  -37.72495102
     atom   16 type  1   force =    -1.01937785    3.81004217    2.00432738
     atom   17 type  2   force =     0.82045747    1.46317654   38.25520493
     atom   18 type  2   force =    -0.15236867   -0.10199985  -37.75547117
     atom   19 type  1   force =     2.66619720   -2.59478092    2.07298570
     atom   20 type  2   force =    -0.14761365    0.04549533  -38.41932970
     atom   21 type  1   force =     0.51038126   -0.93250654    0.76059742
     atom   22 type  2   force =     0.49794204   -2.05986692   36.43101742
     atom   23 type  2   force =    -0.15815299    0.18690906  -37.81936820
     atom   24 type  1   force =    -0.01358631    0.39088244    2.28445534
     atom   25 type  2   force =     0.12278821    0.26548059   38.93330376
     atom   26 type  2   force =    -0.01808850   -0.02124574  -37.60479385
     atom   27 type  1   force =     0.74689188    0.95786435    1.15475667
     atom   28 type  2   force =     0.07714023    0.59810667   38.41199504
     atom   29 type  2   force =     0.08156452   -0.01629961  -37.76668738
     atom   30 type  1   force =     0.03630919   -0.75041423    1.49357609
     atom   31 type  2   force =     1.30520949    0.07588546   37.92581256
     atom   32 type  2   force =    -0.22302440   -0.04443950  -37.71203583
     atom   33 type  1   force =     0.19793843   -0.74714836    2.68703362
     atom   34 type  2   force =    -0.09698714   -0.65159242   38.77268226
     atom   35 type  2   force =     0.02085257    0.04977469  -37.60153325
     atom   36 type  3   force =     0.06084990    0.12359922    8.62200890
     The local contribution  to forces
     atom    1 type  1   force =     0.12035142   -0.59847136   -2.47676892
     atom    2 type  2   force =     0.18591072    0.04138475  -38.63230678
     atom    3 type  2   force =    -0.05233127    0.16482837   37.31640666
     atom    4 type  1   force =    -0.05633282   -0.68255435   -0.49962002
     atom    5 type  2   force =     0.87117736   -1.17577250  -38.45313631
     atom    6 type  2   force =    -0.17847796    0.29872646   38.01275195
     atom    7 type  1   force =     2.87514108    1.13110905   -3.08437469
     atom    8 type  2   force =     1.04314996   -0.27576885  -38.03884364
     atom    9 type  2   force =    -0.31974758   -0.15042746   37.67173951
     atom   10 type  1   force =     0.75934898    0.75412670   -2.54750364
     atom   11 type  2   force =     0.41629759    1.58646635  -37.99104490
     atom   12 type  2   force =    -0.14279829   -0.02750837   37.37547517
     atom   13 type  1   force =    -0.07713517   -0.98290397   -2.55274005
     atom   14 type  2   force =    -0.09502461   -0.08451859  -38.45242932
     atom   15 type  2   force =     0.00001299    0.08232063   37.48328089
     atom   16 type  1   force =     1.02797825   -3.85724992   -1.98142026
     atom   17 type  2   force =    -0.81377550   -1.44196100  -38.02355008
     atom   18 type  2   force =     0.15075781    0.10818594   37.50941555
     atom   19 type  1   force =    -2.69944858    2.59709838   -2.06009544
     atom   20 type  2   force =     0.14953480   -0.03487267   38.17753973
     atom   21 type  1   force =    -0.51699983    0.91402277   -0.75404267
     atom   22 type  2   force =    -0.49563334    1.95950665  -36.66438560
     atom   23 type  2   force =     0.15377825   -0.17470746   37.56726718
     atom   24 type  1   force =     0.01682337   -0.41446597   -2.28358378
     atom   25 type  2   force =    -0.12571848   -0.24935489  -38.69651447
     atom   26 type  2   force =     0.01599053    0.03347874   37.35749880
     atom   27 type  1   force =    -0.74271530   -0.96160112   -1.15555825
     atom   28 type  2   force =    -0.07955903   -0.58356557  -38.16322146
     atom   29 type  2   force =    -0.08116316    0.02570270   37.52239818
     atom   30 type  1   force =    -0.03077915    0.73324957   -1.50241706
     atom   31 type  2   force =    -1.30427645   -0.07441912  -37.68774554
     atom   32 type  2   force =     0.21461369    0.05460961   37.45909531
     atom   33 type  1   force =    -0.18567435    0.74030089   -2.68417353
     atom   34 type  2   force =     0.08960088    0.65614965  -38.52918461
     atom   35 type  2   force =    -0.02134097   -0.03995457   37.35667834
     atom   36 type  3   force =    -0.05912976   -0.10953238   -8.56523881
     The core correction contribution to forces
     atom    1 type  1   force =     0.00000000    0.00000000    0.00000000
     atom    2 type  2   force =    -0.00001637    0.00043254    0.02063251
     atom    3 type  2   force =     0.00006737    0.00048330   -0.02094002
     atom    4 type  1   force =     0.00000000    0.00000000    0.00000000
     atom    5 type  2   force =    -0.00032700    0.00129894    0.02038221
     atom    6 type  2   force =     0.00002642   -0.00008555   -0.02071506
     atom    7 type  1   force =     0.00000000    0.00000000    0.00000000
     atom    8 type  2   force =    -0.00052859    0.00017673    0.02067824
     atom    9 type  2   force =     0.00035101    0.00075892   -0.02084121
     atom   10 type  1   force =     0.00000000    0.00000000    0.00000000
     atom   11 type  2   force =     0.00037430   -0.00038664    0.02005859
     atom   12 type  2   force =     0.00073075    0.00040128   -0.02083440
     atom   13 type  1   force =     0.00000000    0.00000000    0.00000000
     atom   14 type  2   force =     0.00029964    0.00069901    0.02025880
     atom   15 type  2   force =    -0.00002699    0.00052028   -0.02073191
     atom   16 type  1   force =     0.00000000    0.00000000    0.00000000
     atom   17 type  2   force =     0.00057319    0.00117537    0.02012757
     atom   18 type  2   force =    -0.00006979    0.00011329   -0.02075867
     atom   19 type  1   force =     0.00000000    0.00000000    0.00000000
     atom   20 type  2   force =    -0.00007058    0.00041822   -0.02114532
     atom   21 type  1   force =     0.00000000    0.00000000    0.00000000
     atom   22 type  2   force =     0.00002241   -0.00672427   -0.00922332
     atom   23 type  2   force =    -0.00046696    0.00094457   -0.02122284
     atom   24 type  1   force =     0.00000000    0.00000000    0.00000000
     atom   25 type  2   force =    -0.00020493    0.00109289    0.02024388
     atom   26 type  2   force =    -0.00006138    0.00063261   -0.02103598
     atom   27 type  1   force =     0.00000000    0.00000000    0.00000000
     atom   28 type  2   force =    -0.00018780    0.00091782    0.02098863
     atom   29 type  2   force =     0.00006068    0.00036245   -0.02074523
     atom   30 type  1   force =     0.00000000    0.00000000    0.00000000
     atom   31 type  2   force =     0.00009397    0.00016943    0.02031126
     atom   32 type  2   force =    -0.00058089    0.00057421   -0.02101717
     atom   33 type  1   force =     0.00000000    0.00000000    0.00000000
     atom   34 type  2   force =    -0.00055329   -0.00001507    0.02063835
     atom   35 type  2   force =     0.00005562    0.00059342   -0.02097034
     atom   36 type  3   force =     0.00000000    0.00000000    0.00000000
     The Hubbard contrib.    to forces
     atom    1 type  1   force =     0.00000000    0.00000000    0.00000000
     atom    2 type  2   force =     0.00000000    0.00000000    0.00000000
     atom    3 type  2   force =     0.00000000    0.00000000    0.00000000
     atom    4 type  1   force =     0.00000000    0.00000000    0.00000000
     atom    5 type  2   force =     0.00000000    0.00000000    0.00000000
     atom    6 type  2   force =     0.00000000    0.00000000    0.00000000
     atom    7 type  1   force =     0.00000000    0.00000000    0.00000000
     atom    8 type  2   force =     0.00000000    0.00000000    0.00000000
     atom    9 type  2   force =     0.00000000    0.00000000    0.00000000
     atom   10 type  1   force =     0.00000000    0.00000000    0.00000000
     atom   11 type  2   force =     0.00000000    0.00000000    0.00000000
     atom   12 type  2   force =     0.00000000    0.00000000    0.00000000
     atom   13 type  1   force =     0.00000000    0.00000000    0.00000000
     atom   14 type  2   force =     0.00000000    0.00000000    0.00000000
     atom   15 type  2   force =     0.00000000    0.00000000    0.00000000
     atom   16 type  1   force =     0.00000000    0.00000000    0.00000000
     atom   17 type  2   force =     0.00000000    0.00000000    0.00000000
     atom   18 type  2   force =     0.00000000    0.00000000    0.00000000
     atom   19 type  1   force =     0.00000000    0.00000000    0.00000000
     atom   20 type  2   force =     0.00000000    0.00000000    0.00000000
     atom   21 type  1   force =     0.00000000    0.00000000    0.00000000
     atom   22 type  2   force =     0.00000000    0.00000000    0.00000000
     atom   23 type  2   force =     0.00000000    0.00000000    0.00000000
     atom   24 type  1   force =     0.00000000    0.00000000    0.00000000
     atom   25 type  2   force =     0.00000000    0.00000000    0.00000000
     atom   26 type  2   force =     0.00000000    0.00000000    0.00000000
     atom   27 type  1   force =     0.00000000    0.00000000    0.00000000
     atom   28 type  2   force =     0.00000000    0.00000000    0.00000000
     atom   29 type  2   force =     0.00000000    0.00000000    0.00000000
     atom   30 type  1   force =     0.00000000    0.00000000    0.00000000
     atom   31 type  2   force =     0.00000000    0.00000000    0.00000000
     atom   32 type  2   force =     0.00000000    0.00000000    0.00000000
     atom   33 type  1   force =     0.00000000    0.00000000    0.00000000
     atom   34 type  2   force =     0.00000000    0.00000000    0.00000000
     atom   35 type  2   force =     0.00000000    0.00000000    0.00000000
     atom   36 type  3   force =     0.00000000    0.00000000    0.00000000
     The SCF correction term to forces
     atom    1 type  1   force =     0.00002384    0.00000225   -0.00001397
     atom    2 type  2   force =     0.00000425    0.00000344   -0.00002560
     atom    3 type  2   force =     0.00001491   -0.00002041   -0.00000777
     atom    4 type  1   force =     0.00002472    0.00005011    0.00000036
     atom    5 type  2   force =     0.00001595    0.00002128   -0.00000622
     atom    6 type  2   force =     0.00002877    0.00001145    0.00001029
     atom    7 type  1   force =     0.00004658   -0.00000613   -0.00001676
     atom    8 type  2   force =    -0.00000467   -0.00000682   -0.00003505
     atom    9 type  2   force =     0.00000470    0.00001821    0.00001992
     atom   10 type  1   force =     0.00003018   -0.00005342   -0.00007842
     atom   11 type  2   force =     0.00000124   -0.00002964   -0.00003204
     atom   12 type  2   force =     0.00001933   -0.00001716   -0.00000223
     atom   13 type  1   force =    -0.00002766   -0.00001197   -0.00000732
     atom   14 type  2   force =    -0.00000275    0.00000286   -0.00001702
     atom   15 type  2   force =     0.00000046   -0.00001909    0.00000009
     atom   16 type  1   force =     0.00001917    0.00005094    0.00002086
     atom   17 type  2   force =    -0.00000906    0.00001473   -0.00000191
     atom   18 type  2   force =    -0.00001753    0.00000056    0.00001281
     atom   19 type  1   force =    -0.00001163    0.00000772   -0.00000624
     atom   20 type  2   force =     0.00001785    0.00002374    0.00001109
     atom   21 type  1   force =     0.00000549   -0.00003954   -0.00004128
     atom   22 type  2   force =     0.00000017   -0.00001885   -0.00001452
     atom   23 type  2   force =    -0.00000914   -0.00000251   -0.00000727
     atom   24 type  1   force =     0.00000281    0.00001139   -0.00004084
     atom   25 type  2   force =    -0.00000002    0.00000549   -0.00002873
     atom   26 type  2   force =    -0.00001338   -0.00001719   -0.00000430
     atom   27 type  1   force =    -0.00004772    0.00002528    0.00001135
     atom   28 type  2   force =    -0.00000708    0.00001978   -0.00002719
     atom   29 type  2   force =    -0.00000993    0.00001163    0.00001750
     atom   30 type  1   force =    -0.00002876   -0.00000416   -0.00004264
     atom   31 type  2   force =    -0.00000868   -0.00000285   -0.00000842
     atom   32 type  2   force =    -0.00002613    0.00001230    0.00000858
     atom   33 type  1   force =    -0.00004012   -0.00003246   -0.00006910
     atom   34 type  2   force =    -0.00000051   -0.00001902   -0.00004216
     atom   35 type  2   force =    -0.00000850   -0.00000534   -0.00000497
     atom   36 type  3   force =    -0.00000052   -0.00000324   -0.00000242

     Total force =     0.006171     Total SCF correction =     0.000238
     Energy error            =      9.5E-05 Ry
     Gradient error          =      1.9E-03 Ry/Bohr

     bfgs converged in  30 scf cycles and  29 bfgs steps
     (criteria: energy <  1.0E-04 Ry, force <  1.0E-02 Ry/Bohr)

     End of BFGS Geometry Optimization

     Final energy             =   -2205.5971456521 Ry

     File ./MoS2-V-O.bfgs deleted, as requested
Begin final coordinates

ATOMIC_POSITIONS (angstrom)
Mo            6.5615991716        1.7375668742        2.7622272750
S             8.1257856075        0.8227007157        4.3696816384
S             8.1333152134        0.8173333313        1.1755647845
Mo            8.1294964790        4.4635067012        2.7158984198
S             6.5421824584        3.6379977646        4.3296360679
S             6.5620405197        3.5343302787        1.1085217137
Mo            6.4963348396        7.1172891352        2.6816279603
S             8.0768059875        6.2712658191        4.3096081496
S             8.1255590159        6.2938931620        1.1143025482
Mo            8.1269079841        9.9094000617        2.7679871418
S             6.5196657625        8.9134203071        4.3251180856
S             6.5715661868        8.9949939064        1.1362058328
Mo            3.4247803120        1.7332829579        2.7647021449
S             5.0002587904        0.8116214975        4.3533895969
S             4.9917033176        0.8247388228        1.1628466410
Mo            5.0271288260        4.4953323461        2.6628136819
S             3.4756743564        3.6423900269        4.3126052123
S             3.4247923285        3.5403273333        1.1271780561
Mo            3.4568404938        7.1891078763        2.6648486577
S             4.9594826642        6.2773873011        1.0580560446
Mo            4.9941946367        9.9150262703        2.7345666118
S             3.4491095068        8.9704774899        4.2822706179
S             3.3869936695        9.0394465423        1.1375436243
Mo            0.2550339323        1.7248022015        2.7704497505
S             1.8419787590        0.8448301152        4.3774577158
S             1.8397232578        0.8298316406        1.1766917302
Mo            1.8547901805        4.4573080200        2.7255954084
S             0.2590090792        3.5798454700        4.3283906758
S             0.2671095853        3.5353268331        1.1460124651
Mo            0.2531872466        7.1986209458        2.7335235202
S             1.8848516757        6.2819255918        4.2938489651
S             1.8409466536        6.2929987748        1.1187216227
Mo            1.8237843950        9.9389685536        2.7766319513
S             0.2409717617        9.0039775665        4.3584358488
S             0.2541509629        9.0294701305        1.1689362147
H             3.4468447279        9.3104596011        5.6228651612
End final coordinates

     Writing all to output data dir ./MoS2-V-O.save/

     General routines

     Parallel routines

   This run was terminated on:   8:36: 5   4Nov2023

   JOB DONE.