     Program PWSCF v.7.2 starts on  4Nov2023 at  7: 0: 2

     Waiting for input...
     Reading input from standard input
Warning: card &CELL ignored
Warning: card CELL_DYNAMICS = 'BFGS', ignored
Warning: card CELL_DOFREE = '2DXY' ignored
Warning: card / ignored

     Current dimensions of program PWSCF are:
     Max number of different atomic species (ntypx) = 10
     Max number of k-points (npk) =  40000
     Max angular momentum in pseudopotentials (lmaxx) =  4

     IMPORTANT: XC functional enforced from input :
     Exchange-correlation= RVV10
                           (   1   4  13   4  26   0   0)
     Any further DFT definition will be discarded
     Please, verify this is what you really want

     gamma-point specific algorithms are used
     signal trapping enabled: kill the code with -SIGUSR1 to stop cleanly the simulation

     R & G space division:  proc/nbgrp/npool/nimage =      48
     Subspace diagonalization in iterative solution of the eigenvalue problem:
     one sub-group per band group will be used

     Using Slab Decomposition

     bravais-lattice index     =            0
     lattice parameter (alat)  =      17.8707  a.u.
     unit-cell volume          =   17436.2743 (a.u.)^3
     number of atoms/cell      =           36
     number of atomic types    =            3
     number of electrons       =       307.00
     number of Kohn-Sham states=          185
     kinetic-energy cutoff     =      80.0000  Ry
     charge density cutoff     =     400.0000  Ry
     scf convergence threshold =      1.0E-06
     mixing beta               =       0.7000
     number of iterations used =            8  local-TF  mixing
     energy convergence thresh.=      1.0E-04
     force convergence thresh. =      1.0E-02
     Exchange-correlation= RVV10
                           (   1   4  13   4  26   0   0)
     nstep                     =          200

     celldm(1)=  17.870686  celldm(2)=   0.000000  celldm(3)=   0.000000
     celldm(4)=   0.000000  celldm(5)=   0.000000  celldm(6)=   0.000000

     crystal axes: (cart. coord. in units of alat)
               a(1) = (   1.000000   0.000000   0.000000 )
               a(2) = (   0.000000   1.155671   0.000000 )
               a(3) = (   0.000000   0.000000   2.643601 )

     reciprocal axes: (cart. coord. in units 2 pi/alat)
               b(1) = (  1.000000  0.000000  0.000000 )
               b(2) = (  0.000000  0.865298  0.000000 )
               b(3) = (  0.000000  0.000000  0.378272 )

     PseudoPot. # 1 for Mo read from file:
     ../pseudo/Mo_ONCV_PBE-1.0.oncvpsp.upf
     MD5 check sum: 1b5d28e075c9ccadda658a603575cd1f
     Pseudo is Norm-conserving, Zval = 14.0
     Generated using ONCVPSP code by D. R. Hamann
     Using radial grid of 1526 points,  6 beta functions with:
                l(1) =   0
                l(2) =   0
                l(3) =   1
                l(4) =   1
                l(5) =   2
                l(6) =   2

     PseudoPot. # 2 for S  read from file:
     ../pseudo/s_pbe_v1.4.uspp.F.UPF
     MD5 check sum: 88d86576ff6df21479756cfb9bdac1df
     Pseudo is Ultrasoft + core correction, Zval =  6.0
     Generated by new atomic code, or converted to UPF format
     Using radial grid of  907 points,  6 beta functions with:
                l(1) =   0
                l(2) =   0
                l(3) =   1
                l(4) =   1
                l(5) =   2
                l(6) =   2
     Q(r) pseudized with  8 coefficients,  rinner =    1.300   1.300   1.300
                                                       1.300   1.300

     PseudoPot. # 3 for H  read from file:
     ../pseudo/H_ONCV_PBE-1.0.oncvpsp.upf
     MD5 check sum: 1790becc920ee074925cf490c71280fe
     Pseudo is Norm-conserving, Zval =  1.0
     Generated using ONCVPSP code by D. R. Hamann
     Using radial grid of 1166 points,  2 beta functions with:
                l(1) =   0
                l(2) =   0

     atomic species   valence    mass     pseudopotential
        Mo            14.00    95.94000     Mo( 1.00)
        S              6.00    32.06500     S ( 1.00)
        H              1.00     1.00794     H ( 1.00)

     No symmetry found

   Cartesian axes

     site n.     atom                  positions (alat units)
         1           Mo  tau(   1) = (   0.6952221   0.1890506   0.2985846  )
         2           S   tau(   2) = (   0.8646417   0.0856217   0.4689279  )
         3           S   tau(   3) = (   0.8663890   0.0857843   0.1351291  )
         4           Mo  tau(   4) = (   0.8560186   0.4753274   0.2873942  )
         5           S   tau(   5) = (   0.6873294   0.3936244   0.4596353  )
         6           S   tau(   6) = (   0.6929804   0.3713468   0.1185692  )
         7           Mo  tau(   7) = (   0.6862796   0.7633098   0.2825370  )
         8           S   tau(   8) = (   0.8545980   0.6708292   0.4486168  )
         9           S   tau(   9) = (   0.8545123   0.6666874   0.1146125  )
        10           Mo  tau(  10) = (   0.8629403   1.0471007   0.3006803  )
        11           S   tau(  11) = (   0.6868280   0.9456650   0.4634891  )
        12           S   tau(  12) = (   0.6998113   0.9568511   0.1205389  )
        13           Mo  tau(  13) = (   0.3618216   0.1847309   0.2935964  )
        14           S   tau(  14) = (   0.5260962   0.0863870   0.4600448  )
        15           S   tau(  15) = (   0.5348379   0.0894875   0.1297123  )
        16           Mo  tau(  16) = (   0.5265817   0.4772436   0.2784130  )
        17           S   tau(  17) = (   0.3624753   0.3882513   0.4525556  )
        18           S   tau(  18) = (   0.3635411   0.3752055   0.1119148  )
        19           Mo  tau(  19) = (   0.3652268   0.7630864   0.2781795  )
        20           S   tau(  20) = (   0.5269494   0.6690381   0.1096838  )
        21           Mo  tau(  21) = (   0.5300192   1.0470394   0.2900995  )
        22           S   tau(  22) = (   0.3670346   0.9457522   0.4574073  )
        23           S   tau(  23) = (   0.3604225   0.9585725   0.1159032  )
        24           Mo  tau(  24) = (   0.0313099   0.1847895   0.3013130  )
        25           S   tau(  25) = (   0.1956761   0.0838230   0.4650863  )
        26           S   tau(  26) = (   0.1967693   0.0903508   0.1278874  )
        27           Mo  tau(  27) = (   0.1967578   0.4753919   0.2813011  )
        28           S   tau(  28) = (   0.0287851   0.3864324   0.4586755  )
        29           S   tau(  29) = (   0.0244514   0.3729871   0.1239344  )
        30           Mo  tau(  30) = (   0.0286728   0.7631204   0.2856894  )
        31           S   tau(  31) = (   0.2011512   0.6675435   0.4465001  )
        32           S   tau(  32) = (   0.1969214   0.6672839   0.1104564  )
        33           Mo  tau(  33) = (   0.1950294   1.0511147   0.2932237  )
        34           S   tau(  34) = (   0.0312912   0.9612169   0.4667423  )
        35           S   tau(  35) = (   0.0292670   0.9563028   0.1216485  )
        36           H   tau(  36) = (   1.0000000   0.7704471   0.5656742  )

     number of k points=     1  Gaussian smearing, width (Ry)=  0.0100
                       cart. coord. in units 2pi/alat
        k(    1) = (   0.0000000   0.0000000   0.0000000), wk =   2.0000000

     Initial potential from superposition of free atoms

     starting charge     306.9873, renormalised to     307.0000

     negative rho (up, down):  1.409E-04 0.000E+00

Carrying out rVV10 run using the following parameters:
Nqs =      20    Nr_points =    1024   r_max =   100.000
b_value =  6.30000    beta =  0.00901
     q_mesh =  0.00010000  0.00030000  0.00058939  0.00100810
               0.00161396  0.00249058  0.00375900  0.00559430
               0.00824984  0.01209221  0.01765183  0.02569619
               0.03733578  0.05417739  0.07854596  0.11380545
               0.16482331  0.23864234  0.34545298  0.50000000

Gradients computed in Reciprocal space

     Starting wfcs are  213 randomized atomic wfcs

     Self-consistent Calculation

     iteration #  1     ecut=    80.00 Ry     beta= 0.70
     Davidson diagonalization with overlap
     ethr =  1.00E-02,  avg # of iterations =  2.0

     Threshold (ethr) on eigenvalues was too large:
     Diagonalizing with lowered threshold

     Davidson diagonalization with overlap
     ethr =  3.79E-04,  avg # of iterations =  4.0

[...]

     total energy              =   -2205.54779450 Ry
     estimated scf accuracy    <       1.46189823 Ry

[...]

     End of self-consistent calculation

          k = 0.0000 0.0000 0.0000 (105382 PWs)   bands (ev):

   -62.9042 -62.8954 -62.8841 -62.8640 -62.8470 -62.8449 -62.8369 -62.8219
   -62.8189 -62.7917 -62.7825 -62.7385 -37.2526 -37.1761 -37.1681 -37.1572
   -37.1535 -37.1223 -37.1058 -37.0921 -37.0880 -37.0799 -37.0764 -37.0583
   -37.0525 -37.0522 -37.0403 -37.0325 -37.0238 -37.0201 -37.0165 -37.0010
   -36.9964 -36.9773 -36.9570 -36.9508 -36.9425 -36.9339 -36.9200 -36.9154
   -36.9054 -36.8967 -36.8807 -36.8649 -36.8598 -36.8159 -36.7482 -36.7327
   -16.0199 -15.2272 -15.2116 -15.0020 -14.9714 -14.8417 -14.5623 -14.5444
   -14.4959 -14.4768 -14.4040 -14.3505 -14.3350 -14.2902 -14.1799 -14.1547
   -14.1339 -14.1262 -14.0433 -13.9445 -13.8625 -13.8458 -13.8176  -7.9235
    -7.6283  -7.4336  -7.3375  -7.2795  -7.2222  -7.2086  -7.1358  -7.0704
    -6.8500  -6.8139  -6.7606  -6.6929  -6.6389  -6.5286  -6.4565  -6.4318
    -6.2814  -6.2525  -6.0441  -5.9533  -5.9418  -5.9195  -5.8512  -5.8291
    -5.7787  -5.7308  -5.6945  -5.6756  -5.6331  -5.5776  -5.5473  -5.4924
    -5.4657  -5.4243  -5.2352  -5.1363  -5.0881  -5.0279  -5.0241  -5.0012
    -4.9318  -4.8562  -4.6696  -4.5627  -4.3489  -4.3241  -4.2918  -4.2724
    -4.2207  -4.0562  -4.0369  -3.8610  -3.8416  -3.8072  -3.7457  -3.7169
    -3.6894  -3.5983  -3.5499  -3.5096  -3.5004  -3.4799  -3.4576  -3.4007
    -3.3727  -3.2255  -3.1485  -2.9157  -2.9057  -2.8292  -2.7946  -2.7829
    -2.7290  -2.6801  -2.6598  -2.6421  -2.5847  -2.3027  -2.0284  -1.9997
    -1.9524  -1.0652  -0.7902  -0.7133  -0.1941  -0.1631  -0.1190  -0.0672
     0.0471   0.1031   0.1920   0.2195   0.2497   0.2747   0.3477   0.4019
     0.4406   0.5211   0.5290   0.5523   0.5986   0.6509   0.6974   0.7215
     0.7696   0.7727   0.8421   0.8711   0.9162   0.9476   1.0047   1.0966
     1.4150

     the Fermi energy is    -1.0657 ev

!    total energy              =   -2205.48966398 Ry
     estimated scf accuracy    <       0.00000022 Ry
     smearing contrib. (-TS)   =      -0.00574226 Ry
     internal energy E=F+TS    =   -2205.48392172 Ry

     The total energy is F=E-TS. E is the sum of the following terms:
     one-electron contribution =  -18046.14453574 Ry
     hartree contribution      =    9009.63883370 Ry
     xc contribution           =    -385.19617145 Ry
     ewald contribution        =    7216.21795178 Ry

     convergence has been achieved in  14 iterations

[...]

     Forces acting on atoms (cartesian axes, Ry/au):

     atom    1 type  1   force =     0.01349290   -0.02696136    0.00482669
     atom    2 type  2   force =    -0.01464600    0.01829924    0.00068113
[...]
     atom    3 type  2   force =     0.04717002   -0.14687500  -37.84511400
     atom    4 type  1   force =    -0.00972426    1.63658444   -1.03773353
     atom    5 type  2   force =    -0.69595434    1.23707575   38.14495130
     atom    6 type  2   force =    -0.05003334   -0.12856145  -38.43355374
     atom    7 type  1   force =    -2.83376396   -3.12709964    4.49012575
     atom    8 type  2   force =    -1.31407752   -2.06962253   37.77514629
     atom    9 type  2   force =     0.28143158    0.17378043  -37.25288973
     atom   10 type  1   force =    -0.34783101   -0.20747896    1.98906717
     atom   11 type  2   force =    -0.75153757   -0.87930356   38.53182922
     atom   12 type  2   force =     0.12908101    0.08903310  -37.90298754
     atom   13 type  1   force =     0.05446368    0.86872529    1.84099306
     atom   14 type  2   force =    -0.01997696    0.15832019   38.51850240
     atom   15 type  2   force =    -0.06978989   -0.18627659  -37.69398495
     atom   16 type  1   force =    -0.03313645    3.75865733    1.28419360
     atom   17 type  2   force =     0.82721126    1.13304247   38.21220977
     atom   18 type  2   force =    -0.24890268   -0.07780872  -38.03627763
     atom   19 type  1   force =     2.72471297   -2.13307879    4.40712739
     atom   20 type  2   force =     0.02769021    0.05478071  -38.03238609
     atom   21 type  1   force =    -0.27406834   -0.32721787    1.05873539
     atom   22 type  2   force =     0.39820288   -1.28324985   38.64705665
     atom   23 type  2   force =    -0.20370750    0.01793750  -37.67499919
     atom   24 type  1   force =     0.14778831    0.60925478    1.08920913
     atom   25 type  2   force =     0.16018956    0.22627563   38.70384691
     atom   26 type  2   force =     0.00980131   -0.14086988  -37.75059457
     atom   27 type  1   force =     0.14944627    0.40867907    0.73274814
     atom   28 type  2   force =    -0.14940968    0.51658710   37.76579146
     atom   29 type  2   force =     0.22526253    0.12169815  -37.94025731
     atom   30 type  1   force =     0.11525197   -1.45652518    3.08902082
     atom   31 type  2   force =     1.26955908   -0.12256411   38.38652934
     atom   32 type  2   force =    -0.27086472    0.13658213  -37.47665258
     atom   33 type  1   force =     0.62907694   -0.48010760    2.58573361
     atom   34 type  2   force =     0.35585937    0.01031785   38.64594950
     atom   35 type  2   force =     0.07800782   -0.06994752  -37.50654077
     atom   36 type  3   force =    -0.02580580    0.61731063    8.34150912
     The local contribution  to forces
     atom    1 type  1   force =     0.17468289   -0.73470062   -1.68829828
     atom    2 type  2   force =     0.15916510   -0.34040383  -38.40276172
     atom    3 type  2   force =    -0.04659523    0.15680798   37.60063877
     atom    4 type  1   force =     0.00877217   -1.63978485    1.05053800
     atom    5 type  2   force =     0.70239567   -1.20812081  -37.92011672
     atom    6 type  2   force =     0.04783568    0.13210739   38.18824454
     atom    7 type  1   force =     2.85062735    3.13440045   -4.46948016
     atom    8 type  2   force =     1.27017680    1.83613809  -37.81024330
     atom    9 type  2   force =    -0.27637294   -0.16091208   36.99879425
     atom   10 type  1   force =     0.34472557    0.20073712   -1.99539540
     atom   11 type  2   force =     0.74457685    0.87994119  -38.30679230
     atom   12 type  2   force =    -0.12341572   -0.07872445   37.65847247
     atom   13 type  1   force =    -0.05714425   -0.89283131   -1.83788291
     atom   14 type  2   force =     0.02012669   -0.14581839  -38.27419969
     atom   15 type  2   force =     0.06985009    0.19441158   37.45344953
     atom   16 type  1   force =     0.02552243   -3.79258073   -1.25657581
     atom   17 type  2   force =    -0.82211622   -1.11258777  -37.98036486
     atom   18 type  2   force =     0.24947678    0.08257348   37.79328308
     atom   19 type  1   force =    -2.75101541    2.13075206   -4.37998186
     atom   20 type  2   force =    -0.02487531   -0.03900859   37.79010364
     atom   21 type  1   force =     0.27482940    0.29827687   -1.06116307
     atom   22 type  2   force =    -0.39297844    1.28991620  -38.41069461
     atom   23 type  2   force =     0.19496571   -0.00728860   37.43112520
     atom   24 type  1   force =    -0.14819595   -0.62592876   -1.08762692
     atom   25 type  2   force =    -0.16227218   -0.21415355  -38.46240208
     atom   26 type  2   force =    -0.01138052    0.15067920   37.50648265
     atom   27 type  1   force =    -0.14630032   -0.41435794   -0.73833791
     atom   28 type  2   force =     0.14209663   -0.49960377  -37.51948479
     atom   29 type  2   force =    -0.21783386   -0.11306666   37.69094363
     atom   30 type  1   force =    -0.11390646    1.43734335   -3.09494507
     atom   31 type  2   force =    -1.25693321    0.11804056  -38.14855010
     atom   32 type  2   force =     0.26283608   -0.12001384   37.23243504
     atom   33 type  1   force =    -0.62885955    0.47148956   -2.58702935
     atom   34 type  2   force =    -0.35553237   -0.00037566  -38.41288841
     atom   35 type  2   force =    -0.08062504    0.08052082   37.26033329
     atom   36 type  3   force =     0.03047724   -0.58379479   -8.29942895
     The core correction contribution to forces
     atom    1 type  1   force =     0.00000000    0.00000000    0.00000000
     atom    2 type  2   force =     0.00001242    0.00070560    0.02069981
     atom    3 type  2   force =     0.00006824    0.00034109   -0.02087739
     atom    4 type  1   force =     0.00000000    0.00000000    0.00000000
     atom    5 type  2   force =     0.00018946    0.00131528    0.01997463
     atom    6 type  2   force =    -0.00025231   -0.00032598   -0.02092916
     atom    7 type  1   force =     0.00000000    0.00000000    0.00000000
     atom    8 type  2   force =    -0.00272260   -0.01625949    0.00049655
     atom    9 type  2   force =     0.00039137    0.00099107   -0.02129492
     atom   10 type  1   force =     0.00000000    0.00000000    0.00000000
     atom   11 type  2   force =    -0.00035502    0.00019772    0.01975426
     atom   12 type  2   force =     0.00048651    0.00061448   -0.02083644
     atom   13 type  1   force =     0.00000000    0.00000000    0.00000000
     atom   14 type  2   force =     0.00000649    0.00042647    0.02075364
     atom   15 type  2   force =    -0.00003295    0.00033191   -0.02058589
     atom   16 type  1   force =     0.00000000    0.00000000    0.00000000
     atom   17 type  2   force =     0.00050404    0.00091223    0.02021764
     atom   18 type  2   force =    -0.00017497   -0.00013892   -0.02070866
     atom   19 type  1   force =     0.00000000    0.00000000    0.00000000
     atom   20 type  2   force =     0.00026857    0.00088182   -0.02110151
     atom   21 type  1   force =     0.00000000    0.00000000    0.00000000
     atom   22 type  2   force =     0.00014704    0.00021982    0.02044980
     atom   23 type  2   force =    -0.00063617    0.00052366   -0.02082776
     atom   24 type  1   force =     0.00000000    0.00000000    0.00000000
     atom   25 type  2   force =    -0.00009636    0.00071099    0.02060884
     atom   26 type  2   force =    -0.00003470    0.00028641   -0.02082384
     atom   27 type  1   force =     0.00000000    0.00000000    0.00000000
     atom   28 type  2   force =    -0.00052073    0.00098164    0.02077133
     atom   29 type  2   force =     0.00053821    0.00031530   -0.02094832
     atom   30 type  1   force =     0.00000000    0.00000000    0.00000000
     atom   31 type  2   force =     0.00066667   -0.00001832    0.02038775
     atom   32 type  2   force =    -0.00068504    0.00100884   -0.02074272
     atom   33 type  1   force =     0.00000000    0.00000000    0.00000000
     atom   34 type  2   force =     0.00013820    0.00081820    0.02006689
     atom   35 type  2   force =    -0.00010771    0.00051275   -0.02103911
     atom   36 type  3   force =     0.00000000    0.00000000    0.00000000
     The Hubbard contrib.    to forces
     atom    1 type  1   force =     0.00000000    0.00000000    0.00000000
     atom    2 type  2   force =     0.00000000    0.00000000    0.00000000
     atom    3 type  2   force =     0.00000000    0.00000000    0.00000000
     atom    4 type  1   force =     0.00000000    0.00000000    0.00000000
     atom    5 type  2   force =     0.00000000    0.00000000    0.00000000
     atom    6 type  2   force =     0.00000000    0.00000000    0.00000000
     atom    7 type  1   force =     0.00000000    0.00000000    0.00000000
     atom    8 type  2   force =     0.00000000    0.00000000    0.00000000
     atom    9 type  2   force =     0.00000000    0.00000000    0.00000000
     atom   10 type  1   force =     0.00000000    0.00000000    0.00000000
     atom   11 type  2   force =     0.00000000    0.00000000    0.00000000
     atom   12 type  2   force =     0.00000000    0.00000000    0.00000000
     atom   13 type  1   force =     0.00000000    0.00000000    0.00000000
     atom   14 type  2   force =     0.00000000    0.00000000    0.00000000
     atom   15 type  2   force =     0.00000000    0.00000000    0.00000000
     atom   16 type  1   force =     0.00000000    0.00000000    0.00000000
     atom   17 type  2   force =     0.00000000    0.00000000    0.00000000
     atom   18 type  2   force =     0.00000000    0.00000000    0.00000000
     atom   19 type  1   force =     0.00000000    0.00000000    0.00000000
     atom   20 type  2   force =     0.00000000    0.00000000    0.00000000
     atom   21 type  1   force =     0.00000000    0.00000000    0.00000000
     atom   22 type  2   force =     0.00000000    0.00000000    0.00000000
     atom   23 type  2   force =     0.00000000    0.00000000    0.00000000
     atom   24 type  1   force =     0.00000000    0.00000000    0.00000000
     atom   25 type  2   force =     0.00000000    0.00000000    0.00000000
     atom   26 type  2   force =     0.00000000    0.00000000    0.00000000
     atom   27 type  1   force =     0.00000000    0.00000000    0.00000000
     atom   28 type  2   force =     0.00000000    0.00000000    0.00000000
     atom   29 type  2   force =     0.00000000    0.00000000    0.00000000
     atom   30 type  1   force =     0.00000000    0.00000000    0.00000000
     atom   31 type  2   force =     0.00000000    0.00000000    0.00000000
     atom   32 type  2   force =     0.00000000    0.00000000    0.00000000
     atom   33 type  1   force =     0.00000000    0.00000000    0.00000000
     atom   34 type  2   force =     0.00000000    0.00000000    0.00000000
     atom   35 type  2   force =     0.00000000    0.00000000    0.00000000
     atom   36 type  3   force =     0.00000000    0.00000000    0.00000000
     The SCF correction term to forces
     atom    1 type  1   force =    -0.00000568   -0.00001507    0.00002788
     atom    2 type  2   force =    -0.00000834   -0.00000176    0.00000175
     atom    3 type  2   force =     0.00000284   -0.00001053    0.00000499
     atom    4 type  1   force =    -0.00001006   -0.00001168    0.00003679
     atom    5 type  2   force =    -0.00000694    0.00000334    0.00002207
     atom    6 type  2   force =    -0.00000035   -0.00000946    0.00001364
     atom    7 type  1   force =    -0.00001308    0.00001511    0.00004912
     atom    8 type  2   force =    -0.00001385    0.00000305    0.00004504
     atom    9 type  2   force =    -0.00000107    0.00000932    0.00000602
     atom   10 type  1   force =    -0.00001256   -0.00000445    0.00000343
     atom   11 type  2   force =    -0.00000161   -0.00000343    0.00000851
     atom   12 type  2   force =     0.00000933    0.00000915    0.00001029
     atom   13 type  1   force =     0.00000728   -0.00001481    0.00003019
     atom   14 type  2   force =    -0.00000100    0.00000222    0.00001076
     atom   15 type  2   force =     0.00000072   -0.00000322    0.00001203
     atom   16 type  1   force =    -0.00000373    0.00000617    0.00005930
     atom   17 type  2   force =     0.00000780    0.00000232    0.00001745
     atom   18 type  2   force =    -0.00000159   -0.00000582    0.00001339
     atom   19 type  1   force =     0.00000394    0.00000523    0.00005052
     atom   20 type  2   force =    -0.00000563    0.00000979    0.00002013
     atom   21 type  1   force =     0.00000384   -0.00000155    0.00003307
     atom   22 type  2   force =     0.00000433   -0.00000998    0.00001079
     atom   23 type  2   force =    -0.00000324    0.00000015    0.00001332
     atom   24 type  1   force =     0.00000379   -0.00001914    0.00000642
     atom   25 type  2   force =     0.00000717   -0.00000072    0.00000242
     atom   26 type  2   force =    -0.00000459   -0.00000527    0.00000493
     atom   27 type  1   force =     0.00000834    0.00000960    0.00004203
     atom   28 type  2   force =     0.00000087    0.00000439    0.00001798
     atom   29 type  2   force =     0.00000282   -0.00001029    0.00000286
     atom   30 type  1   force =     0.00001946    0.00002401    0.00002221
     atom   31 type  2   force =     0.00001130    0.00000281    0.00001371
     atom   32 type  2   force =     0.00000513    0.00000832    0.00001539
     atom   33 type  1   force =     0.00000098   -0.00000070    0.00001315
     atom   34 type  2   force =     0.00000035   -0.00000111    0.00000256
     atom   35 type  2   force =    -0.00000410    0.00000821    0.00000434
     atom   36 type  3   force =    -0.00000223   -0.00000430   -0.00000149

     Total force =     0.007106     Total SCF correction =     0.000158
     Energy error            =      8.2E-05 Ry
     Gradient error          =      2.3E-03 Ry/Bohr

     bfgs converged in  25 scf cycles and  24 bfgs steps
     (criteria: energy <  1.0E-04 Ry, force <  1.0E-02 Ry/Bohr)

     End of BFGS Geometry Optimization

     Final energy             =   -2205.5916322205 Ry

     File ./MoS2-V-O.bfgs deleted, as requested
Begin final coordinates

ATOMIC_POSITIONS (angstrom)
Mo            6.5981526818        1.7461223778        2.7353887153
S             8.1769763497        0.8571976341        4.3451695767
S             8.1809043086        0.8309929167        1.1472749690
Mo            8.1404073461        4.4649143019        2.6647226586
S             6.5613361424        3.6500621017        4.2913104553
S             6.5925199298        3.5425141206        1.0845526611
Mo            6.5588683351        7.2139842791        2.7185048300
S             8.1119624948        6.4128767439        4.4457595774
S             8.1679361382        6.3300769048        1.1534191215
Mo            8.1803927108        9.9414122610        2.7599595357
S             6.5597174268        8.9973684777        4.3384188965
S             6.6228777662        9.0232624079        1.1370181272
Mo            3.4595511457        1.7551768186        2.7415742950
S             5.0255056523        0.8315247679        4.3318026471
S             5.0243547245        0.8301919419        1.1547480332
Mo            5.0341370811        4.5148837576        2.6474025392
S             3.4960660550        3.6569213386        4.3003855829
S             3.4587576574        3.5654384099        1.1041679722
Mo            3.5170661645        7.1667837917        2.7098448486
S             5.0510087188        6.3258869818        1.0830486871
Mo            5.0268870300        9.9129824151        2.7334618646
S             3.5069384467        8.9564750440        4.3417215600
S             3.4420990212        9.0049728785        1.1442002272
Mo            0.3080118504        1.7367585206        2.7368659599
S             1.8939767582        0.8581225944        4.3503748346
S             1.8903498674        0.8223771833        1.1534661150
Mo            1.8866951850        4.4936342412        2.7158525919
S             0.2781899821        3.5980959538        4.2875450160
S             0.2988639114        3.5561430090        1.1163650052
Mo            0.2990308275        7.2166985489        2.7737809853
S             1.9436152387        6.2912363954        4.3297987837
S             1.8868922272        6.3304353935        1.1455793548
Mo            1.8928449061        9.9317906248        2.7661047923
S             0.3096226126        9.0500284643        4.3632239235
S             0.3053937162        9.0250755739        1.1760037169
H             8.2411966018        7.3244605678        5.4975043592
End final coordinates

     Writing all to output data dir ./MoS2-V-O.save/

     General routines

     Parallel routines

   This run was terminated on:   7:43:17   4Nov2023

   JOB DONE.