     Program PWSCF v.7.2 starts on  4Nov2023 at 10:36:17

     Waiting for input...
     Reading input from standard input
Warning: card &CELL ignored
Warning: card CELL_DYNAMICS = 'BFGS', ignored
Warning: card CELL_DOFREE = '2DXY' ignored
Warning: card / ignored

     Current dimensions of program PWSCF are:
     Max number of different atomic species (ntypx) = 10
     Max number of k-points (npk) =  40000
     Max angular momentum in pseudopotentials (lmaxx) =  4

     IMPORTANT: XC functional enforced from input :
     Exchange-correlation= RVV10
                           (   1   4  13   4  26   0   0)
     Any further DFT definition will be discarded
     Please, verify this is what you really want

     gamma-point specific algorithms are used
     signal trapping enabled: kill the code with -SIGUSR1 to stop cleanly the simulation

     R & G space division:  proc/nbgrp/npool/nimage =      48
     Subspace diagonalization in iterative solution of the eigenvalue problem:
     one sub-group per band group will be used

     Using Slab Decomposition

     bravais-lattice index     =            0
     lattice parameter (alat)  =      17.8707  a.u.
     unit-cell volume          =   17436.2743 (a.u.)^3
     number of atoms/cell      =           36
     number of atomic types    =            3
     number of electrons       =       307.00
     number of Kohn-Sham states=          185
     kinetic-energy cutoff     =      80.0000  Ry
     charge density cutoff     =     400.0000  Ry
     scf convergence threshold =      1.0E-06
     mixing beta               =       0.7000
     number of iterations used =            8  local-TF  mixing
     energy convergence thresh.=      1.0E-04
     force convergence thresh. =      1.0E-02
     Exchange-correlation= RVV10
                           (   1   4  13   4  26   0   0)
     nstep                     =          200

     celldm(1)=  17.870686  celldm(2)=   0.000000  celldm(3)=   0.000000
     celldm(4)=   0.000000  celldm(5)=   0.000000  celldm(6)=   0.000000

     crystal axes: (cart. coord. in units of alat)
               a(1) = (   1.000000   0.000000   0.000000 )
               a(2) = (   0.000000   1.155671   0.000000 )
               a(3) = (   0.000000   0.000000   2.643601 )

     reciprocal axes: (cart. coord. in units 2 pi/alat)
               b(1) = (  1.000000  0.000000  0.000000 )
               b(2) = (  0.000000  0.865298  0.000000 )
               b(3) = (  0.000000  0.000000  0.378272 )

     PseudoPot. # 1 for Mo read from file:
     ../pseudo/Mo_ONCV_PBE-1.0.oncvpsp.upf
     MD5 check sum: 1b5d28e075c9ccadda658a603575cd1f
     Pseudo is Norm-conserving, Zval = 14.0
     Generated using ONCVPSP code by D. R. Hamann
     Using radial grid of 1526 points,  6 beta functions with:
                l(1) =   0
                l(2) =   0
                l(3) =   1
                l(4) =   1
                l(5) =   2
                l(6) =   2

     PseudoPot. # 2 for S  read from file:
     ../pseudo/s_pbe_v1.4.uspp.F.UPF
     MD5 check sum: 88d86576ff6df21479756cfb9bdac1df
     Pseudo is Ultrasoft + core correction, Zval =  6.0
     Generated by new atomic code, or converted to UPF format
     Using radial grid of  907 points,  6 beta functions with:
                l(1) =   0
                l(2) =   0
                l(3) =   1
                l(4) =   1
                l(5) =   2
                l(6) =   2
     Q(r) pseudized with  8 coefficients,  rinner =    1.300   1.300   1.300
                                                       1.300   1.300

     PseudoPot. # 3 for H  read from file:
     ../pseudo/H_ONCV_PBE-1.0.oncvpsp.upf
     MD5 check sum: 1790becc920ee074925cf490c71280fe
     Pseudo is Norm-conserving, Zval =  1.0
     Generated using ONCVPSP code by D. R. Hamann
     Using radial grid of 1166 points,  2 beta functions with:
                l(1) =   0
                l(2) =   0

     atomic species   valence    mass     pseudopotential
        Mo            14.00    95.94000     Mo( 1.00)
        S              6.00    32.06500     S ( 1.00)
        H              1.00     1.00794     H ( 1.00)

     No symmetry found

   Cartesian axes

     site n.     atom                  positions (alat units)
         1           Mo  tau(   1) = (   0.6952221   0.1890506   0.2985846  )
         2           S   tau(   2) = (   0.8646417   0.0856217   0.4689279  )
         3           S   tau(   3) = (   0.8663890   0.0857843   0.1351291  )
         4           Mo  tau(   4) = (   0.8560186   0.4753274   0.2873942  )
         5           S   tau(   5) = (   0.6873294   0.3936244   0.4596353  )
         6           S   tau(   6) = (   0.6929804   0.3713468   0.1185692  )
         7           Mo  tau(   7) = (   0.6862796   0.7633098   0.2825370  )
         8           S   tau(   8) = (   0.8545980   0.6708292   0.4486168  )
         9           S   tau(   9) = (   0.8545123   0.6666874   0.1146125  )
        10           Mo  tau(  10) = (   0.8629403   1.0471007   0.3006803  )
        11           S   tau(  11) = (   0.6868280   0.9456650   0.4634891  )
        12           S   tau(  12) = (   0.6998113   0.9568511   0.1205389  )
        13           Mo  tau(  13) = (   0.3618216   0.1847309   0.2935964  )
        14           S   tau(  14) = (   0.5260962   0.0863870   0.4600448  )
        15           S   tau(  15) = (   0.5348379   0.0894875   0.1297123  )
        16           Mo  tau(  16) = (   0.5265817   0.4772436   0.2784130  )
        17           S   tau(  17) = (   0.3624753   0.3882513   0.4525556  )
        18           S   tau(  18) = (   0.3635411   0.3752055   0.1119148  )
        19           Mo  tau(  19) = (   0.3652268   0.7630864   0.2781795  )
        20           S   tau(  20) = (   0.5269494   0.6690381   0.1096838  )
        21           Mo  tau(  21) = (   0.5300192   1.0470394   0.2900995  )
        22           S   tau(  22) = (   0.3670346   0.9457522   0.4574073  )
        23           S   tau(  23) = (   0.3604225   0.9585725   0.1159032  )
        24           Mo  tau(  24) = (   0.0313099   0.1847895   0.3013130  )
        25           S   tau(  25) = (   0.1956761   0.0838230   0.4650863  )
        26           S   tau(  26) = (   0.1967693   0.0903508   0.1278874  )
        27           Mo  tau(  27) = (   0.1967578   0.4753919   0.2813011  )
        28           S   tau(  28) = (   0.0287851   0.3864324   0.4586755  )
        29           S   tau(  29) = (   0.0244514   0.3729871   0.1239344  )
        30           Mo  tau(  30) = (   0.0286728   0.7631204   0.2856894  )
        31           S   tau(  31) = (   0.2011512   0.6675435   0.4465001  )
        32           S   tau(  32) = (   0.1969214   0.6672839   0.1104564  )
        33           Mo  tau(  33) = (   0.1950294   1.0511147   0.2932237  )
        34           S   tau(  34) = (   0.0312912   0.9612169   0.4667423  )
        35           S   tau(  35) = (   0.0292670   0.9563028   0.1216485  )
        36           H   tau(  36) = (   0.1111111   1.1556707   0.5792558  )

     number of k points=     1  Gaussian smearing, width (Ry)=  0.0100
                       cart. coord. in units 2pi/alat
        k(    1) = (   0.0000000   0.0000000   0.0000000), wk =   2.0000000

     Initial potential from superposition of free atoms

     starting charge     306.9873, renormalised to     307.0000

     negative rho (up, down):  1.407E-04 0.000E+00

Carrying out rVV10 run using the following parameters:
Nqs =      20    Nr_points =    1024   r_max =   100.000
b_value =  6.30000    beta =  0.00901
     q_mesh =  0.00010000  0.00030000  0.00058939  0.00100810
               0.00161396  0.00249058  0.00375900  0.00559430
               0.00824984  0.01209221  0.01765183  0.02569619
               0.03733578  0.05417739  0.07854596  0.11380545
               0.16482331  0.23864234  0.34545298  0.50000000

Gradients computed in Reciprocal space

     Starting wfcs are  213 randomized atomic wfcs

     Self-consistent Calculation

     iteration #  1     ecut=    80.00 Ry     beta= 0.70
     Davidson diagonalization with overlap
     ethr =  1.00E-02,  avg # of iterations =  2.0

     Threshold (ethr) on eigenvalues was too large:
     Diagonalizing with lowered threshold

     Davidson diagonalization with overlap
     ethr =  3.79E-04,  avg # of iterations =  4.0

[...]

     total energy              =   -2205.61394995 Ry
     estimated scf accuracy    <       1.45087590 Ry

[...]

     iteration #  8     ecut=    80.00 Ry     beta= 0.70
     Davidson diagonalization with overlap
     c_bands:  1 eigenvalues not converged
     ethr =  2.23E-06,  avg # of iterations = 20.0

[...]

     iteration # 11     ecut=    80.00 Ry     beta= 0.70
     Davidson diagonalization with overlap
     c_bands:  1 eigenvalues not converged
     ethr =  1.95E-07,  avg # of iterations = 20.0

[...]

     End of self-consistent calculation

          k = 0.0000 0.0000 0.0000 (105382 PWs)   bands (ev):

   -62.8632 -62.8494 -62.8328 -62.8197 -62.8113 -62.8007 -62.7713 -62.7590
   -62.7453 -62.7371 -62.7186 -62.6927 -37.2011 -37.1307 -37.1203 -37.1103
   -37.0977 -37.0725 -37.0569 -37.0441 -37.0392 -37.0346 -37.0251 -37.0143
   -37.0059 -37.0012 -36.9951 -36.9855 -36.9767 -36.9699 -36.9558 -36.9516
   -36.9339 -36.9169 -36.9069 -36.8972 -36.8813 -36.8771 -36.8726 -36.8667
   -36.8607 -36.8432 -36.8264 -36.8126 -36.8021 -36.7681 -36.6888 -36.6675
   -16.0705 -15.4351 -15.1518 -15.0470 -14.9027 -14.7966 -14.6540 -14.4730
   -14.4358 -14.3946 -14.3541 -14.3510 -14.3018 -14.2535 -14.1507 -14.1120
   -14.0913 -14.0726 -13.9927 -13.9197 -13.8142 -13.7921 -13.7689  -8.4314
    -7.5944  -7.4299  -7.2632  -7.2326  -7.2115  -7.1606  -7.1077  -7.0233
    -6.8198  -6.7819  -6.7471  -6.6847  -6.5198  -6.4847  -6.4632  -6.4165
    -6.2923  -6.2340  -6.1104  -5.9717  -5.8995  -5.8749  -5.7939  -5.7699
    -5.7523  -5.6868  -5.6344  -5.6273  -5.5789  -5.5278  -5.4988  -5.4561
    -5.4063  -5.3425  -5.2604  -5.1506  -5.0465  -4.9785  -4.9553  -4.9243
    -4.8938  -4.7989  -4.6232  -4.5148  -4.4836  -4.3186  -4.2660  -4.2043
    -4.1403  -4.0470  -3.9976  -3.9048  -3.7764  -3.7634  -3.7320  -3.6971
    -3.6649  -3.5388  -3.5244  -3.5076  -3.4833  -3.4362  -3.4211  -3.3571
    -3.3414  -3.1747  -3.1059  -2.8926  -2.8730  -2.7754  -2.7427  -2.7121
    -2.6971  -2.6482  -2.6167  -2.5925  -2.5320  -2.2683  -1.9857  -1.9580
    -1.9539  -0.9498  -0.7149  -0.6788  -0.1474  -0.1106  -0.0397  -0.0265
     0.1140   0.1498   0.2155   0.2613   0.2800   0.3202   0.3794   0.4652
     0.5260   0.5560   0.5757   0.6014   0.6484   0.7180   0.7505   0.7795
     0.8014   0.8224   0.8945   0.8963   0.9730   1.0172   1.0588   1.2733
     1.4134

     the Fermi energy is    -0.9520 ev

!    total energy              =   -2205.54414876 Ry
     estimated scf accuracy    <       0.00000054 Ry
     smearing contrib. (-TS)   =      -0.00601150 Ry
     internal energy E=F+TS    =   -2205.53813726 Ry

     The total energy is F=E-TS. E is the sum of the following terms:
     one-electron contribution =  -18045.60689232 Ry
     hartree contribution      =    9009.82109230 Ry
[...]
     atom    3 type  2   force =     0.21273846    0.00041677  -37.50333952
     atom    4 type  1   force =    -0.05956144    0.65312413    0.65544359
     atom    5 type  2   force =    -0.93018491    1.23885138   38.15969436
     atom    6 type  2   force =     0.34167115   -0.24995179  -38.11167362
     atom    7 type  1   force =    -2.39522345   -2.11303586    2.51347843
     atom    8 type  2   force =    -1.28089363    0.10844115   38.12983299
     atom    9 type  2   force =     0.33421415   -0.00931742  -37.74790338
     atom   10 type  1   force =    -0.70312352   -0.75487100    2.49609299
     atom   11 type  2   force =    -0.54194091   -1.50557700   38.37541652
     atom   12 type  2   force =     0.25560087    0.25249935  -37.93948664
     atom   13 type  1   force =    -1.07385791    0.07117897    0.84545914
     atom   14 type  2   force =    -0.15930701    0.02625161   38.25551833
     atom   15 type  2   force =     0.05906663   -0.22888993  -38.09815682
     atom   16 type  1   force =     0.01446327    3.77537185    0.96661783
     atom   17 type  2   force =     0.85402422    1.10297373   38.23331711
     atom   18 type  2   force =    -0.41651120   -0.09681263  -38.35019090
     atom   19 type  1   force =     2.46331535   -2.43646889    2.69674693
     atom   20 type  2   force =    -0.03855005   -0.01325578  -38.70246853
     atom   21 type  1   force =     0.01008960   -0.31225174    0.16339430
     atom   22 type  2   force =     0.70894571   -1.54085875   38.60467814
     atom   23 type  2   force =    -0.37323323    0.35385714  -37.88024981
     atom   24 type  1   force =     0.65057671    0.86437914    3.83704881
     atom   25 type  2   force =     1.94461056    1.13659682   38.45330635
     atom   26 type  2   force =    -0.18668188   -0.12844018  -36.80942425
     atom   27 type  1   force =     0.07334941    0.61188967    1.06123141
     atom   28 type  2   force =     0.06093132    0.77342051   38.22018304
     atom   29 type  2   force =     0.05626329   -0.12028750  -37.31285261
     atom   30 type  1   force =     0.00441926   -1.03974861    2.09699739
     atom   31 type  2   force =     1.24350252    0.04375024   38.09917671
     atom   32 type  2   force =    -0.36088203   -0.06391887  -37.57233817
     atom   33 type  1   force =     0.92928451   -0.08869943    4.21250336
     atom   34 type  2   force =    -0.26030119   -1.02465943   38.75297806
     atom   35 type  2   force =     0.07098488    0.12496745  -37.41235218
     atom   36 type  3   force =    -0.64733939   -0.37362310    8.37427624
     The local contribution  to forces
     atom    1 type  1   force =     0.06750933   -0.80246079   -1.58324408
     atom    2 type  2   force =     0.79413433   -0.17097420  -38.42059533
     atom    3 type  2   force =    -0.20559969    0.00687508   37.25646603
     atom    4 type  1   force =     0.05991390   -0.66328608   -0.66048025
     atom    5 type  2   force =     0.92365734   -1.21589369  -37.92700586
     atom    6 type  2   force =    -0.34011178    0.25599085   37.86684127
     atom    7 type  1   force =     2.41857515    2.11932162   -2.48806262
     atom    8 type  2   force =     1.27253921   -0.10890909  -37.88660217
     atom    9 type  2   force =    -0.32814951    0.02287204   37.50015906
     atom   10 type  1   force =     0.70278288    0.75319855   -2.49932208
     atom   11 type  2   force =     0.53818002    1.50376908  -38.13675007
     atom   12 type  2   force =    -0.24685555   -0.24336283   37.69346485
     atom   13 type  1   force =     1.07593348   -0.08654736   -0.83898646
     atom   14 type  2   force =     0.14690829   -0.01355824  -38.02356469
     atom   15 type  2   force =    -0.05745857    0.22855021   37.85436336
     atom   16 type  1   force =    -0.01398916   -3.81076238   -0.93369825
     atom   17 type  2   force =    -0.84782638   -1.09163870  -38.00968422
     atom   18 type  2   force =     0.41218986    0.10408967   38.10621814
     atom   19 type  1   force =    -2.48622712    2.44407489   -2.67724604
     atom   20 type  2   force =     0.03826355    0.02667826   38.46166626
     atom   21 type  1   force =    -0.01074119    0.29116058   -0.16848614
     atom   22 type  2   force =    -0.69801114    1.53572795  -38.37102588
     atom   23 type  2   force =     0.36229689   -0.34120078   37.63872400
     atom   24 type  1   force =    -0.65613794   -0.87904168   -3.83105585
     atom   25 type  2   force =    -1.72312914   -1.01427601  -38.46269681
     atom   26 type  2   force =     0.18254833    0.13885751   36.55659023
     atom   27 type  1   force =    -0.07197889   -0.62065401   -1.06434209
     atom   28 type  2   force =    -0.06090145   -0.75158574  -37.97513265
     atom   29 type  2   force =    -0.05542873    0.12689358   37.06688948
     atom   30 type  1   force =    -0.00151819    1.02677468   -2.09827677
     atom   31 type  2   force =    -1.23789584   -0.04334294  -37.85675243
     atom   32 type  2   force =     0.35461385    0.07917047   37.32505115
     atom   33 type  1   force =    -0.93007878    0.08243055   -4.20603550
     atom   34 type  2   force =     0.26120780    1.02623485  -38.51490103
     atom   35 type  2   force =    -0.07090591   -0.11103191   37.16529743
     atom   36 type  3   force =     0.61419732    0.35647680   -8.33417631
     The core correction contribution to forces
     atom    1 type  1   force =     0.00000000    0.00000000    0.00000000
     atom    2 type  2   force =    -0.00057400    0.00044368    0.01988744
     atom    3 type  2   force =     0.00055255    0.00027169   -0.02094508
     atom    4 type  1   force =     0.00000000    0.00000000    0.00000000
     atom    5 type  2   force =    -0.00059736    0.00106335    0.02025854
     atom    6 type  2   force =     0.00032683   -0.00009187   -0.02081826
     atom    7 type  1   force =     0.00000000    0.00000000    0.00000000
     atom    8 type  2   force =    -0.00055563    0.00029153    0.02073675
     atom    9 type  2   force =     0.00056382    0.00077999   -0.02092437
     atom   10 type  1   force =     0.00000000    0.00000000    0.00000000
     atom   11 type  2   force =    -0.00013224   -0.00025950    0.02047451
     atom   12 type  2   force =     0.00072486    0.00079936   -0.02090880
     atom   13 type  1   force =     0.00000000    0.00000000    0.00000000
     atom   14 type  2   force =    -0.00069592    0.00027322    0.02022708
     atom   15 type  2   force =     0.00017970   -0.00016814   -0.02082346
     atom   16 type  1   force =     0.00000000    0.00000000    0.00000000
     atom   17 type  2   force =     0.00063524    0.00047492    0.01990862
     atom   18 type  2   force =    -0.00044510    0.00017960   -0.02090378
     atom   19 type  1   force =     0.00000000    0.00000000    0.00000000
     atom   20 type  2   force =    -0.00011765    0.00060383   -0.02115131
     atom   21 type  1   force =     0.00000000    0.00000000    0.00000000
     atom   22 type  2   force =     0.00062082   -0.00051915    0.02026628
     atom   23 type  2   force =    -0.00102211    0.00100837   -0.02078422
     atom   24 type  1   force =     0.00000000    0.00000000    0.00000000
     atom   25 type  2   force =     0.01537510    0.00853305    0.00195630
     atom   26 type  2   force =    -0.00040997    0.00024654   -0.02122686
     atom   27 type  1   force =     0.00000000    0.00000000    0.00000000
     atom   28 type  2   force =     0.00001091    0.00155634    0.02063879
     atom   29 type  2   force =     0.00011693    0.00009638   -0.02075793
     atom   30 type  1   force =     0.00000000    0.00000000    0.00000000
     atom   31 type  2   force =     0.00037754    0.00028973    0.02063703
     atom   32 type  2   force =    -0.00054607    0.00082060   -0.02080822
     atom   33 type  1   force =     0.00000000    0.00000000    0.00000000
     atom   34 type  2   force =    -0.00023402   -0.00037189    0.02029350
     atom   35 type  2   force =     0.00005819    0.00096730   -0.02100545
     atom   36 type  3   force =     0.00000000    0.00000000    0.00000000
     The Hubbard contrib.    to forces
     atom    1 type  1   force =     0.00000000    0.00000000    0.00000000
     atom    2 type  2   force =     0.00000000    0.00000000    0.00000000
     atom    3 type  2   force =     0.00000000    0.00000000    0.00000000
     atom    4 type  1   force =     0.00000000    0.00000000    0.00000000
     atom    5 type  2   force =     0.00000000    0.00000000    0.00000000
     atom    6 type  2   force =     0.00000000    0.00000000    0.00000000
     atom    7 type  1   force =     0.00000000    0.00000000    0.00000000
     atom    8 type  2   force =     0.00000000    0.00000000    0.00000000
     atom    9 type  2   force =     0.00000000    0.00000000    0.00000000
     atom   10 type  1   force =     0.00000000    0.00000000    0.00000000
     atom   11 type  2   force =     0.00000000    0.00000000    0.00000000
     atom   12 type  2   force =     0.00000000    0.00000000    0.00000000
     atom   13 type  1   force =     0.00000000    0.00000000    0.00000000
     atom   14 type  2   force =     0.00000000    0.00000000    0.00000000
     atom   15 type  2   force =     0.00000000    0.00000000    0.00000000
     atom   16 type  1   force =     0.00000000    0.00000000    0.00000000
     atom   17 type  2   force =     0.00000000    0.00000000    0.00000000
     atom   18 type  2   force =     0.00000000    0.00000000    0.00000000
     atom   19 type  1   force =     0.00000000    0.00000000    0.00000000
     atom   20 type  2   force =     0.00000000    0.00000000    0.00000000
     atom   21 type  1   force =     0.00000000    0.00000000    0.00000000
     atom   22 type  2   force =     0.00000000    0.00000000    0.00000000
     atom   23 type  2   force =     0.00000000    0.00000000    0.00000000
     atom   24 type  1   force =     0.00000000    0.00000000    0.00000000
     atom   25 type  2   force =     0.00000000    0.00000000    0.00000000
     atom   26 type  2   force =     0.00000000    0.00000000    0.00000000
     atom   27 type  1   force =     0.00000000    0.00000000    0.00000000
     atom   28 type  2   force =     0.00000000    0.00000000    0.00000000
     atom   29 type  2   force =     0.00000000    0.00000000    0.00000000
     atom   30 type  1   force =     0.00000000    0.00000000    0.00000000
     atom   31 type  2   force =     0.00000000    0.00000000    0.00000000
     atom   32 type  2   force =     0.00000000    0.00000000    0.00000000
     atom   33 type  1   force =     0.00000000    0.00000000    0.00000000
     atom   34 type  2   force =     0.00000000    0.00000000    0.00000000
     atom   35 type  2   force =     0.00000000    0.00000000    0.00000000
     atom   36 type  3   force =     0.00000000    0.00000000    0.00000000
     The SCF correction term to forces
     atom    1 type  1   force =     0.00001443    0.00000974    0.00003177
     atom    2 type  2   force =     0.00000313    0.00001996    0.00001963
     atom    3 type  2   force =    -0.00000080    0.00000005    0.00000141
     atom    4 type  1   force =     0.00000277    0.00000119    0.00003430
     atom    5 type  2   force =    -0.00000165   -0.00000226    0.00000941
     atom    6 type  2   force =    -0.00000430    0.00000104    0.00001093
     atom    7 type  1   force =    -0.00000361   -0.00003104   -0.00000491
     atom    8 type  2   force =     0.00001548   -0.00000691    0.00000127
     atom    9 type  2   force =     0.00001594    0.00000807    0.00000749
     atom   10 type  1   force =     0.00002768    0.00000362   -0.00000255
     atom   11 type  2   force =     0.00000147    0.00000153    0.00000643
     atom   12 type  2   force =    -0.00000214   -0.00000084   -0.00000972
     atom   13 type  1   force =     0.00000093    0.00000536    0.00003594
     atom   14 type  2   force =    -0.00000389    0.00001569    0.00000826
     atom   15 type  2   force =    -0.00000123   -0.00000149    0.00000311
     atom   16 type  1   force =    -0.00000802   -0.00000695    0.00003177
     atom   17 type  2   force =    -0.00000280    0.00000275    0.00001816
     atom   18 type  2   force =     0.00000635    0.00000690    0.00000916
     atom   19 type  1   force =    -0.00001659   -0.00001186   -0.00000583
     atom   20 type  2   force =    -0.00000299   -0.00000014    0.00000541
     atom   21 type  1   force =    -0.00001431    0.00000571   -0.00001163
     atom   22 type  2   force =    -0.00000680    0.00000103   -0.00000605
     atom   23 type  2   force =    -0.00000682   -0.00000234   -0.00000487
     atom   24 type  1   force =     0.00001288    0.00001129    0.00004150
     atom   25 type  2   force =     0.00000309    0.00000499    0.00002119
     atom   26 type  2   force =    -0.00000373   -0.00000838    0.00000267
     atom   27 type  1   force =    -0.00000178    0.00000201    0.00004533
     atom   28 type  2   force =     0.00000449   -0.00000842    0.00002754
     atom   29 type  2   force =    -0.00000090   -0.00000078    0.00000696
     atom   30 type  1   force =     0.00000972   -0.00000669   -0.00000450
     atom   31 type  2   force =    -0.00000911   -0.00000686   -0.00000149
     atom   32 type  2   force =    -0.00000930    0.00001420    0.00000609
     atom   33 type  1   force =    -0.00000995   -0.00000202   -0.00000414
     atom   34 type  2   force =     0.00000573   -0.00000432   -0.00000537
     atom   35 type  2   force =     0.00000894   -0.00001063   -0.00000033
     atom   36 type  3   force =     0.00000155    0.00000199    0.00000155

     Total force =     0.005980     Total SCF correction =     0.000130
     Energy error            =      8.3E-05 Ry
     Gradient error          =      1.5E-03 Ry/Bohr

     bfgs converged in  20 scf cycles and  19 bfgs steps
     (criteria: energy <  1.0E-04 Ry, force <  1.0E-02 Ry/Bohr)

     End of BFGS Geometry Optimization

     Final energy             =   -2205.5826728821 Ry

     File ./MoS2-V-O.bfgs deleted, as requested
Begin final coordinates

ATOMIC_POSITIONS (angstrom)
Mo            6.5654554087        1.7459453302        2.7448540567
S             8.1118244034        0.8369812411        4.3692011055
S             8.1692110871        0.8319870445        1.1809237979
Mo            8.1403120278        4.4829895780        2.7182568993
S             6.5333385105        3.6525108884        4.2948891055
S             6.5837516804        3.5601453885        1.1051193011
Mo            6.5096029927        7.1856836979        2.6674545180
S             8.0706970723        6.2968162796        4.3047049504
S             8.1514460152        6.3194913744        1.1203930127
Mo            8.1382812311        9.9276848644        2.7716117925
S             6.5057547614        8.9557071467        4.3199256442
S             6.5937258325        9.0283966549        1.1227950935
Mo            3.4598293178        1.7773045132        2.7129676283
S             4.9855909462        0.8250207746        4.3163095070
S             5.0010407991        0.8358505089        1.1280265560
Mo            5.0132790122        4.5330842534        2.6385356046
S             3.5019274723        3.6634128780        4.2995145918
S             3.4525166063        3.5670396741        1.0940590828
Mo            3.4867305993        7.1989873080        2.6721650431
S             4.9942941838        6.3218410082        1.0363572710
Mo            4.9852555853        9.9190904622        2.7156421047
S             3.4903059587        8.9474335938        4.3389627175
S             3.3814715572        9.0321281875        1.1335429862
Mo            0.2672639896        1.7281233169        2.8079804924
S             1.7772910903        0.7759715248        4.5148353273
S             1.8464276053        0.8300500257        1.2172940619
Mo            1.8877881238        4.4736691495        2.7243549882
S             0.2780110957        3.6136221338        4.3344933999
S             0.2856673551        3.5351425133        1.1708226306
Mo            0.2699930258        7.2044290723        2.7458446321
S             1.9211592107        6.2953032148        4.3076841618
S             1.8565193207        6.3164900483        1.1316914940
Mo            1.8462237825        9.9215843598        2.8084106330
S             0.2498050667        8.9969870558        4.3759341867
S             0.2770520631        9.0447440633        1.1837287846
H             0.9342533323       11.2281972818        5.5254743743
End final coordinates

     Writing all to output data dir ./MoS2-V-O.save/

     General routines

     Parallel routines

   This run was terminated on:  11: 6:46   4Nov2023

   JOB DONE.