     Program PWSCF v.7.2 starts on  4Nov2023 at  6:18:23

     Waiting for input...
     Reading input from standard input
Warning: card &CELL ignored
Warning: card CELL_DYNAMICS = 'BFGS', ignored
Warning: card CELL_DOFREE = '2DXY' ignored
Warning: card / ignored

     Current dimensions of program PWSCF are:
     Max number of different atomic species (ntypx) = 10
     Max number of k-points (npk) =  40000
     Max angular momentum in pseudopotentials (lmaxx) =  4

     IMPORTANT: XC functional enforced from input :
     Exchange-correlation= RVV10
                           (   1   4  13   4  26   0   0)
     Any further DFT definition will be discarded
     Please, verify this is what you really want

     gamma-point specific algorithms are used
     signal trapping enabled: kill the code with -SIGUSR1 to stop cleanly the simulation

     R & G space division:  proc/nbgrp/npool/nimage =      48
     Subspace diagonalization in iterative solution of the eigenvalue problem:
     one sub-group per band group will be used

     Using Slab Decomposition

     bravais-lattice index     =            0
     lattice parameter (alat)  =      17.8707  a.u.
     unit-cell volume          =   17436.2743 (a.u.)^3
     number of atoms/cell      =           36
     number of atomic types    =            3
     number of electrons       =       307.00
     number of Kohn-Sham states=          185
     kinetic-energy cutoff     =      80.0000  Ry
     charge density cutoff     =     400.0000  Ry
     scf convergence threshold =      1.0E-06
     mixing beta               =       0.7000
     number of iterations used =            8  local-TF  mixing
     energy convergence thresh.=      1.0E-04
     force convergence thresh. =      1.0E-02
     Exchange-correlation= RVV10
                           (   1   4  13   4  26   0   0)
     nstep                     =          200

     celldm(1)=  17.870686  celldm(2)=   0.000000  celldm(3)=   0.000000
     celldm(4)=   0.000000  celldm(5)=   0.000000  celldm(6)=   0.000000

     crystal axes: (cart. coord. in units of alat)
               a(1) = (   1.000000   0.000000   0.000000 )
               a(2) = (   0.000000   1.155671   0.000000 )
               a(3) = (   0.000000   0.000000   2.643601 )

     reciprocal axes: (cart. coord. in units 2 pi/alat)
               b(1) = (  1.000000  0.000000  0.000000 )
               b(2) = (  0.000000  0.865298  0.000000 )
               b(3) = (  0.000000  0.000000  0.378272 )

     PseudoPot. # 1 for Mo read from file:
     ../pseudo/Mo_ONCV_PBE-1.0.oncvpsp.upf
     MD5 check sum: 1b5d28e075c9ccadda658a603575cd1f
     Pseudo is Norm-conserving, Zval = 14.0
     Generated using ONCVPSP code by D. R. Hamann
     Using radial grid of 1526 points,  6 beta functions with:
                l(1) =   0
                l(2) =   0
                l(3) =   1
                l(4) =   1
                l(5) =   2
                l(6) =   2

     PseudoPot. # 2 for S  read from file:
     ../pseudo/s_pbe_v1.4.uspp.F.UPF
     MD5 check sum: 88d86576ff6df21479756cfb9bdac1df
     Pseudo is Ultrasoft + core correction, Zval =  6.0
     Generated by new atomic code, or converted to UPF format
     Using radial grid of  907 points,  6 beta functions with:
                l(1) =   0
                l(2) =   0
                l(3) =   1
                l(4) =   1
                l(5) =   2
                l(6) =   2
     Q(r) pseudized with  8 coefficients,  rinner =    1.300   1.300   1.300
                                                       1.300   1.300

     PseudoPot. # 3 for H  read from file:
     ../pseudo/H_ONCV_PBE-1.0.oncvpsp.upf
     MD5 check sum: 1790becc920ee074925cf490c71280fe
     Pseudo is Norm-conserving, Zval =  1.0
     Generated using ONCVPSP code by D. R. Hamann
     Using radial grid of 1166 points,  2 beta functions with:
                l(1) =   0
                l(2) =   0

     atomic species   valence    mass     pseudopotential
        Mo            14.00    95.94000     Mo( 1.00)
        S              6.00    32.06500     S ( 1.00)
        H              1.00     1.00794     H ( 1.00)

     No symmetry found

   Cartesian axes

     site n.     atom                  positions (alat units)
         1           Mo  tau(   1) = (   0.6952221   0.1890506   0.2985846  )
         2           S   tau(   2) = (   0.8646417   0.0856217   0.4689279  )
         3           S   tau(   3) = (   0.8663890   0.0857843   0.1351291  )
         4           Mo  tau(   4) = (   0.8560186   0.4753274   0.2873942  )
         5           S   tau(   5) = (   0.6873294   0.3936244   0.4596353  )
         6           S   tau(   6) = (   0.6929804   0.3713468   0.1185692  )
         7           Mo  tau(   7) = (   0.6862796   0.7633098   0.2825370  )
         8           S   tau(   8) = (   0.8545980   0.6708292   0.4486168  )
         9           S   tau(   9) = (   0.8545123   0.6666874   0.1146125  )
        10           Mo  tau(  10) = (   0.8629403   1.0471007   0.3006803  )
        11           S   tau(  11) = (   0.6868280   0.9456650   0.4634891  )
        12           S   tau(  12) = (   0.6998113   0.9568511   0.1205389  )
        13           Mo  tau(  13) = (   0.3618216   0.1847309   0.2935964  )
        14           S   tau(  14) = (   0.5260962   0.0863870   0.4600448  )
        15           S   tau(  15) = (   0.5348379   0.0894875   0.1297123  )
        16           Mo  tau(  16) = (   0.5265817   0.4772436   0.2784130  )
        17           S   tau(  17) = (   0.3624753   0.3882513   0.4525556  )
        18           S   tau(  18) = (   0.3635411   0.3752055   0.1119148  )
        19           Mo  tau(  19) = (   0.3652268   0.7630864   0.2781795  )
        20           S   tau(  20) = (   0.5269494   0.6690381   0.1096838  )
        21           Mo  tau(  21) = (   0.5300192   1.0470394   0.2900995  )
        22           S   tau(  22) = (   0.3670346   0.9457522   0.4574073  )
        23           S   tau(  23) = (   0.3604225   0.9585725   0.1159032  )
        24           Mo  tau(  24) = (   0.0313099   0.1847895   0.3013130  )
        25           S   tau(  25) = (   0.1956761   0.0838230   0.4650863  )
        26           S   tau(  26) = (   0.1967693   0.0903508   0.1278874  )
        27           Mo  tau(  27) = (   0.1967578   0.4753919   0.2813011  )
        28           S   tau(  28) = (   0.0287851   0.3864324   0.4586755  )
        29           S   tau(  29) = (   0.0244514   0.3729871   0.1239344  )
        30           Mo  tau(  30) = (   0.0286728   0.7631204   0.2856894  )
        31           S   tau(  31) = (   0.2011512   0.6675435   0.4465001  )
        32           S   tau(  32) = (   0.1969214   0.6672839   0.1104564  )
        33           Mo  tau(  33) = (   0.1950294   1.0511147   0.2932237  )
        34           S   tau(  34) = (   0.0312912   0.9612169   0.4667423  )
        35           S   tau(  35) = (   0.0292670   0.9563028   0.1216485  )
        36           H   tau(  36) = (   0.6666667   0.7704471   0.5656742  )

     number of k points=     1  Gaussian smearing, width (Ry)=  0.0100
                       cart. coord. in units 2pi/alat
        k(    1) = (   0.0000000   0.0000000   0.0000000), wk =   2.0000000

     Initial potential from superposition of free atoms

     starting charge     306.9873, renormalised to     307.0000

     negative rho (up, down):  1.406E-04 0.000E+00

Carrying out rVV10 run using the following parameters:
Nqs =      20    Nr_points =    1024   r_max =   100.000
b_value =  6.30000    beta =  0.00901
     q_mesh =  0.00010000  0.00030000  0.00058939  0.00100810
               0.00161396  0.00249058  0.00375900  0.00559430
               0.00824984  0.01209221  0.01765183  0.02569619
               0.03733578  0.05417739  0.07854596  0.11380545
               0.16482331  0.23864234  0.34545298  0.50000000

Gradients computed in Reciprocal space

     Starting wfcs are  213 randomized atomic wfcs

     Self-consistent Calculation

     iteration #  1     ecut=    80.00 Ry     beta= 0.70
     Davidson diagonalization with overlap
     ethr =  1.00E-02,  avg # of iterations =  2.0

     Threshold (ethr) on eigenvalues was too large:
     Diagonalizing with lowered threshold

     Davidson diagonalization with overlap
     ethr =  3.82E-04,  avg # of iterations =  4.0

[...]

     total energy              =   -2205.54883544 Ry
     estimated scf accuracy    <       1.46759251 Ry

[...]

     iteration #  9     ecut=    80.00 Ry     beta= 0.70
     Davidson diagonalization with overlap
     c_bands:  1 eigenvalues not converged
     ethr =  2.09E-06,  avg # of iterations = 20.0

[...]

     End of self-consistent calculation

          k = 0.0000 0.0000 0.0000 (105382 PWs)   bands (ev):

   -62.9036 -62.8916 -62.8721 -62.8607 -62.8500 -62.8395 -62.8290 -62.8267
   -62.8157 -62.8050 -62.7844 -62.7551 -37.2530 -37.1834 -37.1566 -37.1532
   -37.1479 -37.1189 -37.1137 -37.0896 -37.0848 -37.0788 -37.0716 -37.0591
   -37.0515 -37.0455 -37.0425 -37.0228 -37.0220 -37.0176 -37.0141 -37.0079
   -36.9969 -36.9841 -36.9592 -36.9498 -36.9467 -36.9332 -36.9283 -36.9200
   -36.9152 -36.8956 -36.8805 -36.8617 -36.8530 -36.8150 -36.7624 -36.7399
   -16.0033 -15.2457 -15.1553 -15.0137 -14.9121 -14.8760 -14.5751 -14.4932
   -14.4885 -14.4525 -14.3919 -14.3683 -14.3318 -14.2881 -14.1889 -14.1342
   -14.1191 -14.1093 -14.0415 -13.8887 -13.8587 -13.8494 -13.8183  -7.7993
    -7.5441  -7.3973  -7.3012  -7.2756  -7.2186  -7.2070  -7.1322  -7.0504
    -6.8501  -6.7892  -6.7691  -6.7204  -6.6267  -6.5220  -6.4535  -6.4204
    -6.3285  -6.2791  -6.0165  -5.9945  -5.9230  -5.9025  -5.8384  -5.7952
    -5.7563  -5.7174  -5.6849  -5.6655  -5.6268  -5.5598  -5.5350  -5.5020
    -5.4711  -5.3984  -5.1982  -5.1699  -5.0872  -5.0330  -5.0147  -4.9243
    -4.9110  -4.8489  -4.7292  -4.5820  -4.3809  -4.3224  -4.3135  -4.2367
    -4.2058  -4.0928  -4.0380  -3.8699  -3.8180  -3.7739  -3.7439  -3.6916
    -3.6547  -3.5838  -3.5503  -3.5039  -3.4946  -3.4763  -3.4369  -3.3949
    -3.3748  -3.2125  -3.1256  -2.9441  -2.9015  -2.8432  -2.7825  -2.7402
    -2.7163  -2.6830  -2.6555  -2.6344  -2.5886  -2.3519  -2.0489  -2.0019
    -1.9603  -1.0123  -0.8223  -0.7187  -0.1955  -0.1508  -0.1276  -0.0252
     0.0071   0.1335   0.1701   0.2190   0.2370   0.2561   0.3240   0.4236
     0.4678   0.5099   0.5247   0.5606   0.5861   0.6593   0.7074   0.7308
     0.7440   0.7750   0.8325   0.8550   0.9297   0.9472   0.9872   1.0580
     1.3687

     the Fermi energy is    -1.0176 ev

!    total energy              =   -2205.49095665 Ry
     estimated scf accuracy    <       0.00000039 Ry
     smearing contrib. (-TS)   =      -0.00639669 Ry
     internal energy E=F+TS    =   -2205.48455995 Ry

     The total energy is F=E-TS. E is the sum of the following terms:
     one-electron contribution =  -18044.22298997 Ry
     hartree contribution      =    9008.75952492 Ry
     xc contribution           =    -385.18901739 Ry
     ewald contribution        =    7215.16792249 Ry

     convergence has been achieved in  15 iterations

[...]

     Forces acting on atoms (cartesian axes, Ry/au):

[...]
     atom    3 type  2   force =     0.10032838   -0.13214301  -37.50221981
     atom    4 type  1   force =    -0.06434127    0.53568958    0.87665322
     atom    5 type  2   force =    -0.77666401    1.12561212   38.54939041
     atom    6 type  2   force =     0.24015345   -0.23978548  -38.22398191
     atom    7 type  1   force =    -1.94343139   -1.73277722    2.91574249
     atom    8 type  2   force =    -1.06048227    0.03052108   38.45928621
     atom    9 type  2   force =     0.24594572    0.05163018  -37.70581387
     atom   10 type  1   force =    -0.23235771   -0.33133253    3.31284712
     atom   11 type  2   force =    -0.44367025   -1.24853335   38.88180418
     atom   12 type  2   force =     0.23324301    0.24116305  -37.86720479
     atom   13 type  1   force =    -0.02269525    0.54564022    2.02211506
     atom   14 type  2   force =    -0.02886217   -0.00128760   38.63817785
     atom   15 type  2   force =     0.00473786   -0.14674920  -37.65269636
     atom   16 type  1   force =    -0.32664861    3.08682386    0.68174323
     atom   17 type  2   force =     0.70971474    1.19575579   38.36151066
     atom   18 type  2   force =    -0.24184928   -0.18443318  -38.09450061
     atom   19 type  1   force =     1.91347348   -2.10669968    1.54930913
     atom   20 type  2   force =    -0.02161662   -0.04320171  -38.61120069
     atom   21 type  1   force =     0.07073484   -0.15004064    1.29561318
     atom   22 type  2   force =     0.42997915   -1.28584193   38.86883803
     atom   23 type  2   force =    -0.18013785    0.31091306  -38.10476503
     atom   24 type  1   force =     0.04058995    0.34350042    2.34114306
     atom   25 type  2   force =     0.17284896    0.10798580   38.84099885
     atom   26 type  2   force =    -0.09138620   -0.08977530  -37.51894594
     atom   27 type  1   force =     0.36927245    0.52290507    0.87271740
     atom   28 type  2   force =     0.06511761    0.46527528   38.33804269
     atom   29 type  2   force =     0.02517845   -0.06414207  -37.66013855
     atom   30 type  1   force =    -0.03088300   -0.59187995    2.62811137
     atom   31 type  2   force =     1.18688366   -0.02163112   38.31275375
     atom   32 type  2   force =    -0.25592866   -0.02927014  -37.81607961
     atom   33 type  1   force =     0.11096707   -0.23300228    3.02642637
     atom   34 type  2   force =     0.03692631   -0.39241764   38.99070049
     atom   35 type  2   force =    -0.02691169    0.11268367  -37.36678165
     atom   36 type  3   force =    -0.02989726   -0.14697379    5.25681698
     The local contribution  to forces
     atom    1 type  1   force =     0.05894746   -0.42624565   -2.17929701
     atom    2 type  2   force =     0.11964826   -0.07750377  -38.67531694
     atom    3 type  2   force =    -0.09794677    0.14289269   37.25607615
     atom    4 type  1   force =     0.06208585   -0.54238653   -0.87806454
     atom    5 type  2   force =     0.77384944   -1.10586831  -38.31298994
     atom    6 type  2   force =    -0.23770328    0.24719773   37.97997054
     atom    7 type  1   force =     1.93642804    1.72038321   -2.90185075
     atom    8 type  2   force =     1.05441664   -0.03204684  -38.21534338
     atom    9 type  2   force =    -0.24197474   -0.03823573   37.45914847
     atom   10 type  1   force =     0.23013825    0.32179121   -3.31512924
     atom   11 type  2   force =     0.43853315    1.25362212  -38.64236371
     atom   12 type  2   force =    -0.22689827   -0.22865769   37.62372773
     atom   13 type  1   force =     0.02365607   -0.56869562   -2.01624175
     atom   14 type  2   force =     0.02860938    0.01202937  -38.39130959
     atom   15 type  2   force =    -0.00434406    0.15724256   37.40947503
     atom   16 type  1   force =     0.32858428   -3.09903978   -0.66586277
     atom   17 type  2   force =    -0.70563780   -1.17754528  -38.12650535
     atom   18 type  2   force =     0.23748483    0.19025702   37.84917573
     atom   19 type  1   force =    -1.90614439    2.09771832   -1.53994277
     atom   20 type  2   force =     0.02265698    0.05688619   38.36988877
     atom   21 type  1   force =    -0.07041708    0.12686385   -1.29986888
     atom   22 type  2   force =    -0.42471353    1.28796664  -38.62922591
     atom   23 type  2   force =     0.17597858   -0.29787203   37.86228236
     atom   24 type  1   force =    -0.04075509   -0.36018649   -2.34000499
     atom   25 type  2   force =    -0.17380084   -0.09509440  -38.59457335
     atom   26 type  2   force =     0.08850180    0.10031366   37.27219833
     atom   27 type  1   force =    -0.36632611   -0.53014199   -0.87408793
     atom   28 type  2   force =    -0.06513777   -0.45218306  -38.09016860
     atom   29 type  2   force =    -0.02529930    0.07158257   37.41372773
     atom   30 type  1   force =     0.03116303    0.57259232   -2.62708331
     atom   31 type  2   force =    -1.17900102    0.02144343  -38.06904017
     atom   32 type  2   force =     0.25043175    0.04011773   37.56904727
     atom   33 type  1   force =    -0.10837739    0.22362048   -3.02852492
     atom   34 type  2   force =    -0.03617866    0.40226478  -38.74080629
     atom   35 type  2   force =     0.02641081   -0.09906452   37.12034524
     atom   36 type  3   force =     0.03029096    0.14391283   -5.23899108
     The core correction contribution to forces
     atom    1 type  1   force =     0.00000000    0.00000000    0.00000000
     atom    2 type  2   force =     0.00003603    0.00069379    0.02083802
     atom    3 type  2   force =     0.00020608    0.00043541   -0.02091024
     atom    4 type  1   force =     0.00000000    0.00000000    0.00000000
     atom    5 type  2   force =    -0.00035448    0.00088106    0.02049871
     atom    6 type  2   force =     0.00037076   -0.00007800   -0.02088097
     atom    7 type  1   force =     0.00000000    0.00000000    0.00000000
     atom    8 type  2   force =    -0.00039443   -0.00003080    0.02078447
     atom    9 type  2   force =     0.00032156    0.00072147   -0.02084451
     atom   10 type  1   force =     0.00000000    0.00000000    0.00000000
     atom   11 type  2   force =    -0.00021650    0.00001520    0.02061366
     atom   12 type  2   force =     0.00051828    0.00083692   -0.02089080
     atom   13 type  1   force =     0.00000000    0.00000000    0.00000000
     atom   14 type  2   force =    -0.00003176    0.00035550    0.02092037
     atom   15 type  2   force =     0.00006430    0.00052701   -0.02074036
     atom   16 type  1   force =     0.00000000    0.00000000    0.00000000
     atom   17 type  2   force =     0.00043014    0.00093915    0.02039977
     atom   18 type  2   force =    -0.00034154    0.00002931   -0.02088543
     atom   19 type  1   force =     0.00000000    0.00000000    0.00000000
     atom   20 type  2   force =     0.00000541    0.00059386   -0.02091426
     atom   21 type  1   force =     0.00000000    0.00000000    0.00000000
     atom   22 type  2   force =     0.00018130   -0.00022355    0.02067019
     atom   23 type  2   force =    -0.00039366    0.00098119   -0.02087109
     atom   24 type  1   force =     0.00000000    0.00000000    0.00000000
     atom   25 type  2   force =     0.00005785    0.00066276    0.02085047
     atom   26 type  2   force =    -0.00017703    0.00049412   -0.02092373
     atom   27 type  1   force =     0.00000000    0.00000000    0.00000000
     atom   28 type  2   force =     0.00001944    0.00086903    0.02092703
     atom   29 type  2   force =     0.00002585    0.00019300   -0.02083003
     atom   30 type  1   force =     0.00000000    0.00000000    0.00000000
     atom   31 type  2   force =     0.00057336    0.00014235    0.02075354
     atom   32 type  2   force =    -0.00047764    0.00062646   -0.02088029
     atom   33 type  1   force =     0.00000000    0.00000000    0.00000000
     atom   34 type  2   force =     0.00006907    0.00039941    0.02111410
     atom   35 type  2   force =    -0.00000615    0.00074559   -0.02093592
     atom   36 type  3   force =     0.00000000    0.00000000    0.00000000
     The Hubbard contrib.    to forces
     atom    1 type  1   force =     0.00000000    0.00000000    0.00000000
     atom    2 type  2   force =     0.00000000    0.00000000    0.00000000
     atom    3 type  2   force =     0.00000000    0.00000000    0.00000000
     atom    4 type  1   force =     0.00000000    0.00000000    0.00000000
     atom    5 type  2   force =     0.00000000    0.00000000    0.00000000
     atom    6 type  2   force =     0.00000000    0.00000000    0.00000000
     atom    7 type  1   force =     0.00000000    0.00000000    0.00000000
     atom    8 type  2   force =     0.00000000    0.00000000    0.00000000
     atom    9 type  2   force =     0.00000000    0.00000000    0.00000000
     atom   10 type  1   force =     0.00000000    0.00000000    0.00000000
     atom   11 type  2   force =     0.00000000    0.00000000    0.00000000
     atom   12 type  2   force =     0.00000000    0.00000000    0.00000000
     atom   13 type  1   force =     0.00000000    0.00000000    0.00000000
     atom   14 type  2   force =     0.00000000    0.00000000    0.00000000
     atom   15 type  2   force =     0.00000000    0.00000000    0.00000000
     atom   16 type  1   force =     0.00000000    0.00000000    0.00000000
     atom   17 type  2   force =     0.00000000    0.00000000    0.00000000
     atom   18 type  2   force =     0.00000000    0.00000000    0.00000000
     atom   19 type  1   force =     0.00000000    0.00000000    0.00000000
     atom   20 type  2   force =     0.00000000    0.00000000    0.00000000
     atom   21 type  1   force =     0.00000000    0.00000000    0.00000000
     atom   22 type  2   force =     0.00000000    0.00000000    0.00000000
     atom   23 type  2   force =     0.00000000    0.00000000    0.00000000
     atom   24 type  1   force =     0.00000000    0.00000000    0.00000000
     atom   25 type  2   force =     0.00000000    0.00000000    0.00000000
     atom   26 type  2   force =     0.00000000    0.00000000    0.00000000
     atom   27 type  1   force =     0.00000000    0.00000000    0.00000000
     atom   28 type  2   force =     0.00000000    0.00000000    0.00000000
     atom   29 type  2   force =     0.00000000    0.00000000    0.00000000
     atom   30 type  1   force =     0.00000000    0.00000000    0.00000000
     atom   31 type  2   force =     0.00000000    0.00000000    0.00000000
     atom   32 type  2   force =     0.00000000    0.00000000    0.00000000
     atom   33 type  1   force =     0.00000000    0.00000000    0.00000000
     atom   34 type  2   force =     0.00000000    0.00000000    0.00000000
     atom   35 type  2   force =     0.00000000    0.00000000    0.00000000
     atom   36 type  3   force =     0.00000000    0.00000000    0.00000000
     The SCF correction term to forces
     atom    1 type  1   force =     0.00000437   -0.00003874   -0.00000815
     atom    2 type  2   force =     0.00000110   -0.00000701   -0.00000615
     atom    3 type  2   force =    -0.00000110   -0.00000100    0.00000273
     atom    4 type  1   force =     0.00001648   -0.00002451    0.00000095
     atom    5 type  2   force =     0.00001845   -0.00001828    0.00001232
     atom    6 type  2   force =     0.00001223   -0.00002069   -0.00001847
     atom    7 type  1   force =    -0.00001616    0.00003700    0.00001207
     atom    8 type  2   force =    -0.00000676    0.00000424    0.00000482
     atom    9 type  2   force =    -0.00000641    0.00000216   -0.00000175
     atom   10 type  1   force =    -0.00000550    0.00002580    0.00000531
     atom   11 type  2   force =    -0.00000720    0.00000582   -0.00000348
     atom   12 type  2   force =    -0.00000328    0.00000778    0.00001102
     atom   13 type  1   force =    -0.00001399   -0.00004348   -0.00001136
     atom   14 type  2   force =     0.00000093   -0.00001246   -0.00000593
     atom   15 type  2   force =    -0.00000045   -0.00000417    0.00000072
     atom   16 type  1   force =    -0.00000250   -0.00000916   -0.00001483
     atom   17 type  2   force =    -0.00001302   -0.00001658    0.00001336
     atom   18 type  2   force =    -0.00001245   -0.00001872   -0.00001891
     atom   19 type  1   force =     0.00001078    0.00004877    0.00001265
     atom   20 type  2   force =    -0.00000511    0.00002487   -0.00000293
     atom   21 type  1   force =    -0.00001477    0.00000384    0.00001058
     atom   22 type  2   force =     0.00000623   -0.00000001   -0.00000834
     atom   23 type  2   force =     0.00000226    0.00000246    0.00001253
     atom   24 type  1   force =    -0.00000259   -0.00001987   -0.00000218
     atom   25 type  2   force =     0.00000155   -0.00000654   -0.00000243
     atom   26 type  2   force =     0.00000429   -0.00000138    0.00000186
     atom   27 type  1   force =    -0.00001419   -0.00001528   -0.00000769
     atom   28 type  2   force =    -0.00000262   -0.00001091    0.00000207
     atom   29 type  2   force =    -0.00000004   -0.00001153   -0.00000356
     atom   30 type  1   force =     0.00001415    0.00002721    0.00000559
     atom   31 type  2   force =     0.00000775    0.00001097    0.00000554
     atom   32 type  2   force =     0.00000730    0.00000649   -0.00000346
     atom   33 type  1   force =     0.00001819    0.00001337    0.00000351
     atom   34 type  2   force =    -0.00000008    0.00001137    0.00000027
     atom   35 type  2   force =     0.00000244    0.00001193    0.00000258
     atom   36 type  3   force =    -0.00000159    0.00000938    0.00000102

     Total force =     0.006778     Total SCF correction =     0.000137
     Energy error            =      9.7E-05 Ry
     Gradient error          =      2.0E-03 Ry/Bohr

     bfgs converged in  45 scf cycles and  44 bfgs steps
     (criteria: energy <  1.0E-04 Ry, force <  1.0E-02 Ry/Bohr)

     End of BFGS Geometry Optimization

     Final energy             =   -2205.7083911759 Ry

     File ./MoS2-V-O.bfgs deleted, as requested
Begin final coordinates

ATOMIC_POSITIONS (angstrom)
Mo            6.6054125080        1.7798946037        2.8045023246
S             8.1739494636        0.8773638075        4.4185927664
S             8.1874649552        0.8575527924        1.2259662348
Mo            8.1663450601        4.5124203173        2.7709575759
S             6.5748994558        3.6614161927        4.3649571137
S             6.6139185913        3.5792773052        1.1571447865
Mo            6.5565954697        7.2270987160        2.7445051756
S             8.1160779659        6.3268127054        4.3672549011
S             8.1720569331        6.3488825001        1.1828634583
Mo            8.1724978524        9.9594456826        2.8303021070
S             6.5624907627        9.0026381133        4.3964735223
S             6.6238395170        9.0616133193        1.1874299919
Mo            3.4661394957        1.7874561389        2.8007578719
S             5.0314484141        0.8553034257        4.3923212687
S             5.0362622531        0.8708066146        1.2090264611
Mo            5.0504814720        4.5326592185        2.7018097179
S             3.5105016444        3.6757498690        4.3557068598
S             3.4644819771        3.5934941913        1.1586794228
Mo            3.4913858409        7.2487033169        2.7198441222
S             5.0296703091        6.3448025037        1.0891172200
Mo            5.0290094150        9.9426919348        2.7865658581
S             3.4929938043        9.0052591503        4.3905918637
S             3.4338471105        9.0801548328        1.1750656313
Mo            0.3054486343        1.7722455119        2.8171152043
S             1.8965750195        0.8814899081        4.4120466198
S             1.8818393682        0.8679432985        1.2233495831
Mo            1.9043242216        4.5202777620        2.7690286869
S             0.3109567330        3.6340949836        4.3726351416
S             0.3080601856        3.5896697884        1.1973282683
Mo            0.2976280535        7.2335674666        2.8042499639
S             1.9431028034        6.3410029013        4.3565421043
S             1.8713935436        6.3526534787        1.1724586303
Mo            1.8870858425        9.9636010748        2.8234812526
S             0.3019946394        9.0482194230        4.4204423001
S             0.2981204834        9.0680967834        1.2321817163
H             5.0085538797        6.3625201116        3.6950270925
End final coordinates

     Writing all to output data dir ./MoS2-V-O.save/

     General routines

     Parallel routines

   This run was terminated on:   7:42:10   4Nov2023

   JOB DONE.