     Program PWSCF v.7.2 starts on  3Nov2023 at 23:50:42

     Waiting for input...
     Reading input from standard input
Warning: card &CELL ignored
Warning: card CELL_DYNAMICS = 'BFGS', ignored
Warning: card CELL_DOFREE = '2DXY' ignored
Warning: card / ignored

     Current dimensions of program PWSCF are:
     Max number of different atomic species (ntypx) = 10
     Max number of k-points (npk) =  40000
     Max angular momentum in pseudopotentials (lmaxx) =  4

     IMPORTANT: XC functional enforced from input :
     Exchange-correlation= RVV10
                           (   1   4  13   4  26   0   0)
     Any further DFT definition will be discarded
     Please, verify this is what you really want

     gamma-point specific algorithms are used
     signal trapping enabled: kill the code with -SIGUSR1 to stop cleanly the simulation

     R & G space division:  proc/nbgrp/npool/nimage =      48
     Subspace diagonalization in iterative solution of the eigenvalue problem:
     one sub-group per band group will be used

     Using Slab Decomposition

     bravais-lattice index     =            0
     lattice parameter (alat)  =      17.8707  a.u.
     unit-cell volume          =   17436.2743 (a.u.)^3
     number of atoms/cell      =           36
     number of atomic types    =            3
     number of electrons       =       307.00
     number of Kohn-Sham states=          185
     kinetic-energy cutoff     =      80.0000  Ry
     charge density cutoff     =     400.0000  Ry
     scf convergence threshold =      1.0E-06
     mixing beta               =       0.7000
     number of iterations used =            8  local-TF  mixing
     energy convergence thresh.=      1.0E-04
     force convergence thresh. =      1.0E-02
     Exchange-correlation= RVV10
                           (   1   4  13   4  26   0   0)
     nstep                     =          200

     celldm(1)=  17.870686  celldm(2)=   0.000000  celldm(3)=   0.000000
     celldm(4)=   0.000000  celldm(5)=   0.000000  celldm(6)=   0.000000

     crystal axes: (cart. coord. in units of alat)
               a(1) = (   1.000000   0.000000   0.000000 )
               a(2) = (   0.000000   1.155671   0.000000 )
               a(3) = (   0.000000   0.000000   2.643601 )

     reciprocal axes: (cart. coord. in units 2 pi/alat)
               b(1) = (  1.000000  0.000000  0.000000 )
               b(2) = (  0.000000  0.865298  0.000000 )
               b(3) = (  0.000000  0.000000  0.378272 )

     PseudoPot. # 1 for Mo read from file:
     ../pseudo/Mo_ONCV_PBE-1.0.oncvpsp.upf
     MD5 check sum: 1b5d28e075c9ccadda658a603575cd1f
     Pseudo is Norm-conserving, Zval = 14.0
     Generated using ONCVPSP code by D. R. Hamann
     Using radial grid of 1526 points,  6 beta functions with:
                l(1) =   0
                l(2) =   0
                l(3) =   1
                l(4) =   1
                l(5) =   2
                l(6) =   2

     PseudoPot. # 2 for S  read from file:
     ../pseudo/s_pbe_v1.4.uspp.F.UPF
     MD5 check sum: 88d86576ff6df21479756cfb9bdac1df
     Pseudo is Ultrasoft + core correction, Zval =  6.0
     Generated by new atomic code, or converted to UPF format
     Using radial grid of  907 points,  6 beta functions with:
                l(1) =   0
                l(2) =   0
                l(3) =   1
                l(4) =   1
                l(5) =   2
                l(6) =   2
     Q(r) pseudized with  8 coefficients,  rinner =    1.300   1.300   1.300
                                                       1.300   1.300

     PseudoPot. # 3 for H  read from file:
     ../pseudo/H_ONCV_PBE-1.0.oncvpsp.upf
     MD5 check sum: 1790becc920ee074925cf490c71280fe
     Pseudo is Norm-conserving, Zval =  1.0
     Generated using ONCVPSP code by D. R. Hamann
     Using radial grid of 1166 points,  2 beta functions with:
                l(1) =   0
                l(2) =   0

     atomic species   valence    mass     pseudopotential
        Mo            14.00    95.94000     Mo( 1.00)
        S              6.00    32.06500     S ( 1.00)
        H              1.00     1.00794     H ( 1.00)

     No symmetry found

   Cartesian axes

     site n.     atom                  positions (alat units)
         1           Mo  tau(   1) = (   0.6952221   0.1890506   0.2985846  )
         2           S   tau(   2) = (   0.8646417   0.0856217   0.4689279  )
         3           S   tau(   3) = (   0.8663890   0.0857843   0.1351291  )
         4           Mo  tau(   4) = (   0.8560186   0.4753274   0.2873942  )
         5           S   tau(   5) = (   0.6873294   0.3936244   0.4596353  )
         6           S   tau(   6) = (   0.6929804   0.3713468   0.1185692  )
         7           Mo  tau(   7) = (   0.6862796   0.7633098   0.2825370  )
         8           S   tau(   8) = (   0.8545980   0.6708292   0.4486168  )
         9           S   tau(   9) = (   0.8545123   0.6666874   0.1146125  )
        10           Mo  tau(  10) = (   0.8629403   1.0471007   0.3006803  )
        11           S   tau(  11) = (   0.6868280   0.9456650   0.4634891  )
        12           S   tau(  12) = (   0.6998113   0.9568511   0.1205389  )
        13           Mo  tau(  13) = (   0.3618216   0.1847309   0.2935964  )
        14           S   tau(  14) = (   0.5260962   0.0863870   0.4600448  )
        15           S   tau(  15) = (   0.5348379   0.0894875   0.1297123  )
        16           Mo  tau(  16) = (   0.5265817   0.4772436   0.2784130  )
        17           S   tau(  17) = (   0.3624753   0.3882513   0.4525556  )
        18           S   tau(  18) = (   0.3635411   0.3752055   0.1119148  )
        19           Mo  tau(  19) = (   0.3652268   0.7630864   0.2781795  )
        20           S   tau(  20) = (   0.5269494   0.6690381   0.1096838  )
        21           Mo  tau(  21) = (   0.5300192   1.0470394   0.2900995  )
        22           S   tau(  22) = (   0.3670346   0.9457522   0.4574073  )
        23           S   tau(  23) = (   0.3604225   0.9585725   0.1159032  )
        24           Mo  tau(  24) = (   0.0313099   0.1847895   0.3013130  )
        25           S   tau(  25) = (   0.1956761   0.0838230   0.4650863  )
        26           S   tau(  26) = (   0.1967693   0.0903508   0.1278874  )
        27           Mo  tau(  27) = (   0.1967578   0.4753919   0.2813011  )
        28           S   tau(  28) = (   0.0287851   0.3864324   0.4586755  )
        29           S   tau(  29) = (   0.0244514   0.3729871   0.1239344  )
        30           Mo  tau(  30) = (   0.0286728   0.7631204   0.2856894  )
        31           S   tau(  31) = (   0.2011512   0.6675435   0.4465001  )
        32           S   tau(  32) = (   0.1969214   0.6672839   0.1104564  )
        33           Mo  tau(  33) = (   0.1950294   1.0511147   0.2932237  )
        34           S   tau(  34) = (   0.0312912   0.9612169   0.4667423  )
        35           S   tau(  35) = (   0.0292670   0.9563028   0.1216485  )
        36           H   tau(  36) = (   0.2222222   0.0000000   0.5650415  )

     number of k points=     1  Gaussian smearing, width (Ry)=  0.0100
                       cart. coord. in units 2pi/alat
        k(    1) = (   0.0000000   0.0000000   0.0000000), wk =   2.0000000

     Initial potential from superposition of free atoms

     starting charge     306.9873, renormalised to     307.0000

     negative rho (up, down):  1.411E-04 0.000E+00

Carrying out rVV10 run using the following parameters:
Nqs =      20    Nr_points =    1024   r_max =   100.000
b_value =  6.30000    beta =  0.00901
     q_mesh =  0.00010000  0.00030000  0.00058939  0.00100810
               0.00161396  0.00249058  0.00375900  0.00559430
               0.00824984  0.01209221  0.01765183  0.02569619
               0.03733578  0.05417739  0.07854596  0.11380545
               0.16482331  0.23864234  0.34545298  0.50000000

Gradients computed in Reciprocal space

     Starting wfcs are  213 randomized atomic wfcs

     Self-consistent Calculation

     iteration #  1     ecut=    80.00 Ry     beta= 0.70
     Davidson diagonalization with overlap
     ethr =  1.00E-02,  avg # of iterations =  2.0

     Threshold (ethr) on eigenvalues was too large:
     Diagonalizing with lowered threshold

     Davidson diagonalization with overlap
     ethr =  3.96E-04,  avg # of iterations =  4.0

[...]

     total energy              =   -2205.60599546 Ry
     estimated scf accuracy    <       1.50014111 Ry

[...]

     iteration #  9     ecut=    80.00 Ry     beta= 0.70
     Davidson diagonalization with overlap
     c_bands:  1 eigenvalues not converged
     ethr =  1.56E-06,  avg # of iterations = 20.0

[...]

     End of self-consistent calculation

          k = 0.0000 0.0000 0.0000 (105382 PWs)   bands (ev):

   -62.8955 -62.8486 -62.8118 -62.7962 -62.7938 -62.7876 -62.7779 -62.7650
   -62.7175 -62.5750 -62.5461 -62.4960 -37.1999 -37.1548 -37.1184 -37.0938
   -37.0912 -37.0691 -37.0620 -37.0441 -37.0225 -37.0095 -36.9969 -36.9893
   -36.9761 -36.9750 -36.9654 -36.9596 -36.9538 -36.9443 -36.9403 -36.9354
   -36.9047 -36.8756 -36.8641 -36.8429 -36.8300 -36.8043 -36.7928 -36.7862
   -36.7541 -36.7326 -36.7204 -36.7007 -36.6767 -36.6424 -36.5250 -36.5212
   -16.7993 -15.7395 -15.1036 -15.0217 -14.8606 -14.7827 -14.6594 -14.4224
   -14.3891 -14.3567 -14.3174 -14.2884 -14.2700 -14.2117 -14.1166 -14.0615
   -14.0346 -14.0321 -13.9473 -13.8876 -13.7501 -13.7367 -13.7130  -9.5825
    -7.5821  -7.4273  -7.3328  -7.2505  -7.1937  -7.1536  -7.0999  -7.0657
    -6.7952  -6.7379  -6.7145  -6.6296  -6.5358  -6.4710  -6.4444  -6.3646
    -6.2978  -6.2129  -6.1581  -5.9396  -5.8987  -5.8430  -5.7450  -5.7287
    -5.7058  -5.6476  -5.5938  -5.5838  -5.5313  -5.4894  -5.4702  -5.4133
    -5.4026  -5.3024  -5.2724  -5.1136  -5.0073  -4.9446  -4.9077  -4.8942
    -4.8505  -4.7536  -4.6001  -4.5784  -4.4184  -4.3035  -4.2197  -4.1605
    -4.0962  -4.0149  -3.9695  -3.8235  -3.7858  -3.7252  -3.6965  -3.6528
    -3.6213  -3.5198  -3.4883  -3.4626  -3.4447  -3.3857  -3.3685  -3.3183
    -3.2991  -3.1407  -3.0753  -2.8794  -2.8211  -2.7649  -2.6922  -2.6886
    -2.6595  -2.6056  -2.5806  -2.5339  -2.4522  -2.1970  -1.9503  -1.9242
    -1.8076  -0.6489  -0.6237  -0.5174  -0.1491  -0.0867  -0.0656  -0.0110
     0.1014   0.1874   0.2053   0.2848   0.3228   0.3291   0.4266   0.5332
     0.5419   0.6325   0.6349   0.6770   0.6812   0.7430   0.7645   0.8045
     0.8335   0.8670   0.9060   0.9495   1.0007   1.0342   1.1190   1.2386
     1.4333

     the Fermi energy is    -0.7057 ev

!    total energy              =   -2205.52584284 Ry
     estimated scf accuracy    <       0.00000066 Ry
     smearing contrib. (-TS)   =      -0.00949802 Ry
     internal energy E=F+TS    =   -2205.51634482 Ry

     The total energy is F=E-TS. E is the sum of the following terms:
     one-electron contribution =  -18050.74543818 Ry
     hartree contribution      =    9012.74819819 Ry
     xc contribution           =    -385.43414472 Ry
     ewald contribution        =    7217.91503989 Ry

     convergence has been achieved in  16 iterations

[...]

     Forces acting on atoms (cartesian axes, Ry/au):

[...]
     atom    3 type  2   force =     0.18126176   -0.17020279  -37.44550716
     atom    4 type  1   force =    -0.61112450    0.57240807    0.93061915
     atom    5 type  2   force =    -0.87059244    1.32092177   38.34518809
     atom    6 type  2   force =     0.13668078   -0.32887138  -37.94268320
     atom    7 type  1   force =    -3.18687440   -2.05032047    1.22009876
     atom    8 type  2   force =    -1.37563383    0.16052647   38.32428728
     atom    9 type  2   force =     0.25504107   -0.03150994  -38.08435196
     atom   10 type  1   force =    -0.16271107   -0.27104963    2.99838430
     atom   11 type  2   force =    -0.57617524   -1.50636963   38.55572690
     atom   12 type  2   force =     0.12812937    0.40512671  -38.04197563
     atom   13 type  1   force =    -0.25752867   -0.00520726    2.19464408
     atom   14 type  2   force =    -0.03132934   -0.28813501   38.58198931
     atom   15 type  2   force =    -0.13934881   -0.25456804  -37.50231412
     atom   16 type  1   force =     0.62619736    3.78975026    1.46693688
     atom   17 type  2   force =     0.86458934    1.28160774   38.58172784
     atom   18 type  2   force =    -0.27157838   -0.43128976  -38.36650400
     atom   19 type  1   force =     3.13110132   -1.40578755    1.95881514
     atom   20 type  2   force =     0.09349637    0.08851821  -38.60158412
     atom   21 type  1   force =    -0.43410685   -0.40978291    1.23797080
     atom   22 type  2   force =     0.68092815   -1.45560076   38.46593817
     atom   23 type  2   force =    -0.12204004    0.43508961  -37.80623099
     atom   24 type  1   force =     0.51693722   -0.24491958    2.82847088
     atom   25 type  2   force =     0.07756427   -0.31384073   35.93634921
     atom   26 type  2   force =    -0.06901068   -0.20013809  -36.60241919
     atom   27 type  1   force =     0.14131274    0.23294390    0.21476474
     atom   28 type  2   force =    -0.00461803    0.58745036   38.39107170
     atom   29 type  2   force =     0.05744514   -0.24656497  -37.76800342
     atom   30 type  1   force =     0.07691647   -0.52644032    2.14365862
     atom   31 type  2   force =     1.16784283    0.26214487   38.29158952
     atom   32 type  2   force =    -0.29487215    0.11882666  -38.08902951
     atom   33 type  1   force =     0.56738006    0.23240261    3.45218074
     atom   34 type  2   force =    -0.06025436   -0.38469608   38.93402599
     atom   35 type  2   force =     0.02631878    0.40144688  -37.43019536
     atom   36 type  3   force =     0.09160230    0.13988556    8.71139592
     The local contribution  to forces
     atom    1 type  1   force =     0.15449263   -0.63558060   -2.89473209
     atom    2 type  2   force =     0.19420287    0.11585242  -38.77684893
     atom    3 type  2   force =    -0.17715031    0.17720272   37.19909474
     atom    4 type  1   force =     0.61475912   -0.59055914   -0.93409621
     atom    5 type  2   force =     0.86491715   -1.29764579  -38.11125551
     atom    6 type  2   force =    -0.13750564    0.33327169   37.69793959
     atom    7 type  1   force =     3.21698812    2.05150861   -1.21474513
     atom    8 type  2   force =     1.36185961   -0.15926468  -38.08100333
     atom    9 type  2   force =    -0.25124075    0.04169220   37.83876020
     atom   10 type  1   force =     0.16648943    0.27056983   -2.99965557
     atom   11 type  2   force =     0.56884132    1.49804275  -38.32091058
     atom   12 type  2   force =    -0.12389400   -0.39432779   37.80030555
     atom   13 type  1   force =     0.24083485   -0.02397772   -2.18570845
     atom   14 type  2   force =     0.03777519    0.29178690  -38.34611919
     atom   15 type  2   force =     0.13855004    0.26038945   37.26158984
     atom   16 type  1   force =    -0.63528987   -3.84919740   -1.43913016
     atom   17 type  2   force =    -0.85832990   -1.25248873  -38.35526476
     atom   18 type  2   force =     0.27521250    0.43573136   38.12532232
     atom   19 type  1   force =    -3.17150589    1.41333370   -1.93805890
     atom   20 type  2   force =    -0.09308581   -0.07597937   38.36042910
     atom   21 type  1   force =     0.43003597    0.39512070   -1.24064254
     atom   22 type  2   force =    -0.67206788    1.44697480  -38.23234534
     atom   23 type  2   force =     0.11626756   -0.41846351   37.56157223
     atom   24 type  1   force =    -0.49988034    0.21921716   -2.81648309
     atom   25 type  2   force =    -0.09007269    0.27819618  -36.19011569
     atom   26 type  2   force =     0.06507597    0.20926579   36.33743568
     atom   27 type  1   force =    -0.14393926   -0.24671836   -0.21880823
     atom   28 type  2   force =     0.00301300   -0.56427020  -38.14971811
     atom   29 type  2   force =    -0.05694524    0.25577205   37.52059260
     atom   30 type  1   force =    -0.07068280    0.51327659   -2.14925794
     atom   31 type  2   force =    -1.15810217   -0.26097980  -38.04794572
     atom   32 type  2   force =     0.29151986   -0.10256529   37.84458756
     atom   33 type  1   force =    -0.56818235   -0.21354868   -3.43610599
     atom   34 type  2   force =     0.05311261    0.38626977  -38.69085995
     atom   35 type  2   force =    -0.02830522   -0.38776078   37.18381505
     atom   36 type  3   force =    -0.09025781   -0.13363222   -8.64816121
     The core correction contribution to forces
     atom    1 type  1   force =     0.00000000    0.00000000    0.00000000
     atom    2 type  2   force =    -0.00061486   -0.00004497    0.02029242
     atom    3 type  2   force =     0.00011546    0.00016660   -0.02096604
     atom    4 type  1   force =     0.00000000    0.00000000    0.00000000
     atom    5 type  2   force =    -0.00058258    0.00130674    0.02023073
     atom    6 type  2   force =    -0.00001044   -0.00005972   -0.02074388
     atom    7 type  1   force =     0.00000000    0.00000000    0.00000000
     atom    8 type  2   force =    -0.00097774    0.00039821    0.02075324
     atom    9 type  2   force =     0.00044355    0.00058994   -0.02084265
     atom   10 type  1   force =     0.00000000    0.00000000    0.00000000
     atom   11 type  2   force =    -0.00027042   -0.00091392    0.02031958
     atom   12 type  2   force =     0.00046983    0.00087171   -0.02075657
     atom   13 type  1   force =     0.00000000    0.00000000    0.00000000
     atom   14 type  2   force =     0.00057962   -0.00024216    0.02021045
     atom   15 type  2   force =     0.00003159    0.00001022   -0.02070910
     atom   16 type  1   force =     0.00000000    0.00000000    0.00000000
     atom   17 type  2   force =     0.00061905    0.00188249    0.01981983
     atom   18 type  2   force =    -0.00002171    0.00000965   -0.02079478
     atom   19 type  1   force =     0.00000000    0.00000000    0.00000000
     atom   20 type  2   force =     0.00018341    0.00064470   -0.02105824
     atom   21 type  1   force =     0.00000000    0.00000000    0.00000000
     atom   22 type  2   force =     0.00060612   -0.00102091    0.02010511
     atom   23 type  2   force =    -0.00040228    0.00092067   -0.02087413
     atom   24 type  1   force =     0.00000000    0.00000000    0.00000000
     atom   25 type  2   force =    -0.00094090   -0.00262789   -0.01077848
     atom   26 type  2   force =    -0.00027098    0.00028465   -0.02154667
     atom   27 type  1   force =     0.00000000    0.00000000    0.00000000
     atom   28 type  2   force =    -0.00016248    0.00182780    0.02047400
     atom   29 type  2   force =    -0.00000717    0.00041151   -0.02091469
     atom   30 type  1   force =     0.00000000    0.00000000    0.00000000
     atom   31 type  2   force =     0.00059419    0.00033204    0.02071312
     atom   32 type  2   force =    -0.00058525    0.00094306   -0.02082225
     atom   33 type  1   force =     0.00000000    0.00000000    0.00000000
     atom   34 type  2   force =    -0.00060499   -0.00022413    0.02064195
     atom   35 type  2   force =    -0.00020141    0.00078222   -0.02099732
     atom   36 type  3   force =     0.00000000    0.00000000    0.00000000
     The Hubbard contrib.    to forces
     atom    1 type  1   force =     0.00000000    0.00000000    0.00000000
     atom    2 type  2   force =     0.00000000    0.00000000    0.00000000
     atom    3 type  2   force =     0.00000000    0.00000000    0.00000000
     atom    4 type  1   force =     0.00000000    0.00000000    0.00000000
     atom    5 type  2   force =     0.00000000    0.00000000    0.00000000
     atom    6 type  2   force =     0.00000000    0.00000000    0.00000000
     atom    7 type  1   force =     0.00000000    0.00000000    0.00000000
     atom    8 type  2   force =     0.00000000    0.00000000    0.00000000
     atom    9 type  2   force =     0.00000000    0.00000000    0.00000000
     atom   10 type  1   force =     0.00000000    0.00000000    0.00000000
     atom   11 type  2   force =     0.00000000    0.00000000    0.00000000
     atom   12 type  2   force =     0.00000000    0.00000000    0.00000000
     atom   13 type  1   force =     0.00000000    0.00000000    0.00000000
     atom   14 type  2   force =     0.00000000    0.00000000    0.00000000
     atom   15 type  2   force =     0.00000000    0.00000000    0.00000000
     atom   16 type  1   force =     0.00000000    0.00000000    0.00000000
     atom   17 type  2   force =     0.00000000    0.00000000    0.00000000
     atom   18 type  2   force =     0.00000000    0.00000000    0.00000000
     atom   19 type  1   force =     0.00000000    0.00000000    0.00000000
     atom   20 type  2   force =     0.00000000    0.00000000    0.00000000
     atom   21 type  1   force =     0.00000000    0.00000000    0.00000000
     atom   22 type  2   force =     0.00000000    0.00000000    0.00000000
     atom   23 type  2   force =     0.00000000    0.00000000    0.00000000
     atom   24 type  1   force =     0.00000000    0.00000000    0.00000000
     atom   25 type  2   force =     0.00000000    0.00000000    0.00000000
     atom   26 type  2   force =     0.00000000    0.00000000    0.00000000
     atom   27 type  1   force =     0.00000000    0.00000000    0.00000000
     atom   28 type  2   force =     0.00000000    0.00000000    0.00000000
     atom   29 type  2   force =     0.00000000    0.00000000    0.00000000
     atom   30 type  1   force =     0.00000000    0.00000000    0.00000000
     atom   31 type  2   force =     0.00000000    0.00000000    0.00000000
     atom   32 type  2   force =     0.00000000    0.00000000    0.00000000
     atom   33 type  1   force =     0.00000000    0.00000000    0.00000000
     atom   34 type  2   force =     0.00000000    0.00000000    0.00000000
     atom   35 type  2   force =     0.00000000    0.00000000    0.00000000
     atom   36 type  3   force =     0.00000000    0.00000000    0.00000000
     The SCF correction term to forces
     atom    1 type  1   force =     0.00000042    0.00000008    0.00011128
     atom    2 type  2   force =    -0.00000901    0.00000259    0.00000559
     atom    3 type  2   force =    -0.00001364    0.00001785    0.00002981
     atom    4 type  1   force =    -0.00003504   -0.00003398    0.00008062
     atom    5 type  2   force =    -0.00001646   -0.00003268    0.00002628
     atom    6 type  2   force =    -0.00001645   -0.00002024   -0.00000151
     atom    7 type  1   force =    -0.00003279   -0.00000985    0.00001791
     atom    8 type  2   force =     0.00001282    0.00001018    0.00001329
     atom    9 type  2   force =     0.00001241   -0.00000050    0.00000490
     atom   10 type  1   force =     0.00004343    0.00005675    0.00010671
     atom   11 type  2   force =     0.00002017    0.00001723    0.00003099
     atom   12 type  2   force =    -0.00001156    0.00000904   -0.00001321
     atom   13 type  1   force =     0.00008072    0.00005268    0.00006099
     atom   14 type  2   force =     0.00001653    0.00003472    0.00001450
     atom   15 type  2   force =     0.00000714    0.00001679    0.00000045
     atom   16 type  1   force =    -0.00001604   -0.00005201    0.00003118
     atom   17 type  2   force =     0.00001373   -0.00002418   -0.00000105
     atom   18 type  2   force =     0.00000545   -0.00001364    0.00002064
     atom   19 type  1   force =     0.00002515    0.00003264    0.00002914
     atom   20 type  2   force =    -0.00000373   -0.00000592   -0.00000482
     atom   21 type  1   force =    -0.00000156    0.00005258    0.00002748
     atom   22 type  2   force =    -0.00000407   -0.00000811    0.00000071
     atom   23 type  2   force =     0.00000494   -0.00000076    0.00001350
     atom   24 type  1   force =    -0.00005051    0.00000438    0.00005266
     atom   25 type  2   force =    -0.00002691    0.00000989    0.00005654
     atom   26 type  2   force =     0.00000040    0.00001378   -0.00000871
     atom   27 type  1   force =     0.00001780   -0.00014417    0.00002630
     atom   28 type  2   force =     0.00000879   -0.00001835    0.00002138
     atom   29 type  2   force =     0.00001003   -0.00001455    0.00001061
     atom   30 type  1   force =    -0.00005401    0.00006179    0.00007309
     atom   31 type  2   force =     0.00000798    0.00001413    0.00001771
     atom   32 type  2   force =     0.00000614    0.00001057   -0.00000391
     atom   33 type  1   force =    -0.00002709   -0.00002419    0.00001725
     atom   34 type  2   force =    -0.00000574    0.00000628    0.00001168
     atom   35 type  2   force =     0.00000085   -0.00000283    0.00001799
     atom   36 type  3   force =    -0.00000210    0.00000066    0.00000203

     Total force =     0.006279     Total SCF correction =     0.000347
     Energy error            =      7.6E-05 Ry
     Gradient error          =      2.2E-03 Ry/Bohr

     bfgs converged in  33 scf cycles and  32 bfgs steps
     (criteria: energy <  1.0E-04 Ry, force <  1.0E-02 Ry/Bohr)

     End of BFGS Geometry Optimization

     Final energy             =   -2205.5908092505 Ry

     File ./MoS2-V-O.bfgs deleted, as requested
Begin final coordinates

ATOMIC_POSITIONS (angstrom)
Mo            6.5658186408        1.7365514917        2.7672769712
S             8.1257625892        0.8274275215        4.3785698293
S             8.1437743936        0.8248672989        1.1837478071
Mo            8.1244679114        4.4744887717        2.7173091318
S             6.5139882307        3.6545196640        4.3105122113
S             6.5679462862        3.5404856489        1.1122293373
Mo            6.5473501148        7.1844794468        2.6417044197
S             8.0717403493        6.2883938059        4.3031544769
S             8.1583405627        6.2925316796        1.1018678800
Mo            8.1494903975        9.9183493607        2.7705995417
S             6.5361219705        8.9286307669        4.3256856377
S             6.6015675601        9.0352709588        1.1169967166
Mo            3.4664254025        1.7660992065        2.7609878922
S             5.0093090732        0.7921376322        4.3458128955
S             5.0069861232        0.8154425465        1.1692049304
Mo            4.9802305404        4.5128987328        2.6490741026
S             3.4686664125        3.6681857892        4.3228726543
S             3.4326796331        3.5388238199        1.0954191636
Mo            3.4684125964        7.1220807733        2.6566242106
S             5.0134672747        6.2896453619        1.0344934700
Mo            5.0028884558        9.8799621508        2.7308310626
S             3.4930186019        8.8681871074        4.3266100362
S             3.4051440101        8.9940723493        1.1272952201
Mo            0.2403010292        1.7422939774        2.7827362556
S             1.8815414829        0.8289908957        4.2842463238
S             1.8523951971        0.8095061586        1.2173803582
Mo            1.8597870894        4.4564686341        2.7074716880
S             0.2567405885        3.6044511069        4.3256403200
S             0.2555851497        3.5286786161        1.1447314294
Mo            0.2650785529        7.1825113542        2.7380357476
S             1.9067592998        6.2629597988        4.3015472789
S             1.8352655906        6.2805802649        1.1001951690
Mo            1.8690157724        9.8597524407        2.7822406750
S             0.2657744423        8.9776264071        4.3662859465
S             0.2784973282        9.0170911362        1.1772737147
H             1.9535105808        0.9765037345        5.6436753660
End final coordinates

     Writing all to output data dir ./MoS2-V-O.save/

     General routines

     Parallel routines

   This run was terminated on:   0:49: 1   4Nov2023

   JOB DONE.