     Program PWSCF v.7.2 starts on  4Nov2023 at  8: 1:20

     Waiting for input...
     Reading input from standard input
Warning: card &CELL ignored
Warning: card CELL_DYNAMICS = 'BFGS', ignored
Warning: card CELL_DOFREE = '2DXY' ignored
Warning: card / ignored

     Current dimensions of program PWSCF are:
     Max number of different atomic species (ntypx) = 10
     Max number of k-points (npk) =  40000
     Max angular momentum in pseudopotentials (lmaxx) =  4

     IMPORTANT: XC functional enforced from input :
     Exchange-correlation= RVV10
                           (   1   4  13   4  26   0   0)
     Any further DFT definition will be discarded
     Please, verify this is what you really want

     gamma-point specific algorithms are used
     signal trapping enabled: kill the code with -SIGUSR1 to stop cleanly the simulation

     R & G space division:  proc/nbgrp/npool/nimage =      48
     Subspace diagonalization in iterative solution of the eigenvalue problem:
     one sub-group per band group will be used

     Using Slab Decomposition

     bravais-lattice index     =            0
     lattice parameter (alat)  =      17.8707  a.u.
     unit-cell volume          =   17436.2743 (a.u.)^3
     number of atoms/cell      =           36
     number of atomic types    =            3
     number of electrons       =       307.00
     number of Kohn-Sham states=          185
     kinetic-energy cutoff     =      80.0000  Ry
     charge density cutoff     =     400.0000  Ry
     scf convergence threshold =      1.0E-06
     mixing beta               =       0.7000
     number of iterations used =            8  local-TF  mixing
     energy convergence thresh.=      1.0E-04
     force convergence thresh. =      1.0E-02
     Exchange-correlation= RVV10
                           (   1   4  13   4  26   0   0)
     nstep                     =          200

     celldm(1)=  17.870686  celldm(2)=   0.000000  celldm(3)=   0.000000
     celldm(4)=   0.000000  celldm(5)=   0.000000  celldm(6)=   0.000000

     crystal axes: (cart. coord. in units of alat)
               a(1) = (   1.000000   0.000000   0.000000 )
               a(2) = (   0.000000   1.155671   0.000000 )
               a(3) = (   0.000000   0.000000   2.643601 )

     reciprocal axes: (cart. coord. in units 2 pi/alat)
               b(1) = (  1.000000  0.000000  0.000000 )
               b(2) = (  0.000000  0.865298  0.000000 )
               b(3) = (  0.000000  0.000000  0.378272 )

     PseudoPot. # 1 for Mo read from file:
     ../pseudo/Mo_ONCV_PBE-1.0.oncvpsp.upf
     MD5 check sum: 1b5d28e075c9ccadda658a603575cd1f
     Pseudo is Norm-conserving, Zval = 14.0
     Generated using ONCVPSP code by D. R. Hamann
     Using radial grid of 1526 points,  6 beta functions with:
                l(1) =   0
                l(2) =   0
                l(3) =   1
                l(4) =   1
                l(5) =   2
                l(6) =   2

     PseudoPot. # 2 for S  read from file:
     ../pseudo/s_pbe_v1.4.uspp.F.UPF
     MD5 check sum: 88d86576ff6df21479756cfb9bdac1df
     Pseudo is Ultrasoft + core correction, Zval =  6.0
     Generated by new atomic code, or converted to UPF format
     Using radial grid of  907 points,  6 beta functions with:
                l(1) =   0
                l(2) =   0
                l(3) =   1
                l(4) =   1
                l(5) =   2
                l(6) =   2
     Q(r) pseudized with  8 coefficients,  rinner =    1.300   1.300   1.300
                                                       1.300   1.300

     PseudoPot. # 3 for H  read from file:
     ../pseudo/H_ONCV_PBE-1.0.oncvpsp.upf
     MD5 check sum: 1790becc920ee074925cf490c71280fe
     Pseudo is Norm-conserving, Zval =  1.0
     Generated using ONCVPSP code by D. R. Hamann
     Using radial grid of 1166 points,  2 beta functions with:
                l(1) =   0
                l(2) =   0

     atomic species   valence    mass     pseudopotential
        Mo            14.00    95.94000     Mo( 1.00)
        S              6.00    32.06500     S ( 1.00)
        H              1.00     1.00794     H ( 1.00)

     No symmetry found

   Cartesian axes

     site n.     atom                  positions (alat units)
         1           Mo  tau(   1) = (   0.6952221   0.1890506   0.2985846  )
         2           S   tau(   2) = (   0.8646417   0.0856217   0.4689279  )
         3           S   tau(   3) = (   0.8663890   0.0857843   0.1351291  )
         4           Mo  tau(   4) = (   0.8560186   0.4753274   0.2873942  )
         5           S   tau(   5) = (   0.6873294   0.3936244   0.4596353  )
         6           S   tau(   6) = (   0.6929804   0.3713468   0.1185692  )
         7           Mo  tau(   7) = (   0.6862796   0.7633098   0.2825370  )
         8           S   tau(   8) = (   0.8545980   0.6708292   0.4486168  )
         9           S   tau(   9) = (   0.8545123   0.6666874   0.1146125  )
        10           Mo  tau(  10) = (   0.8629403   1.0471007   0.3006803  )
        11           S   tau(  11) = (   0.6868280   0.9456650   0.4634891  )
        12           S   tau(  12) = (   0.6998113   0.9568511   0.1205389  )
        13           Mo  tau(  13) = (   0.3618216   0.1847309   0.2935964  )
        14           S   tau(  14) = (   0.5260962   0.0863870   0.4600448  )
        15           S   tau(  15) = (   0.5348379   0.0894875   0.1297123  )
        16           Mo  tau(  16) = (   0.5265817   0.4772436   0.2784130  )
        17           S   tau(  17) = (   0.3624753   0.3882513   0.4525556  )
        18           S   tau(  18) = (   0.3635411   0.3752055   0.1119148  )
        19           Mo  tau(  19) = (   0.3652268   0.7630864   0.2781795  )
        20           S   tau(  20) = (   0.5269494   0.6690381   0.1096838  )
        21           Mo  tau(  21) = (   0.5300192   1.0470394   0.2900995  )
        22           S   tau(  22) = (   0.3670346   0.9457522   0.4574073  )
        23           S   tau(  23) = (   0.3604225   0.9585725   0.1159032  )
        24           Mo  tau(  24) = (   0.0313099   0.1847895   0.3013130  )
        25           S   tau(  25) = (   0.1956761   0.0838230   0.4650863  )
        26           S   tau(  26) = (   0.1967693   0.0903508   0.1278874  )
        27           Mo  tau(  27) = (   0.1967578   0.4753919   0.2813011  )
        28           S   tau(  28) = (   0.0287851   0.3864324   0.4586755  )
        29           S   tau(  29) = (   0.0244514   0.3729871   0.1239344  )
        30           Mo  tau(  30) = (   0.0286728   0.7631204   0.2856894  )
        31           S   tau(  31) = (   0.2011512   0.6675435   0.4465001  )
        32           S   tau(  32) = (   0.1969214   0.6672839   0.1104564  )
        33           Mo  tau(  33) = (   0.1950294   1.0511147   0.2932237  )
        34           S   tau(  34) = (   0.0312912   0.9612169   0.4667423  )
        35           S   tau(  35) = (   0.0292670   0.9563028   0.1216485  )
        36           H   tau(  36) = (   0.6666667   0.8988550   0.5656742  )

     number of k points=     1  Gaussian smearing, width (Ry)=  0.0100
                       cart. coord. in units 2pi/alat
        k(    1) = (   0.0000000   0.0000000   0.0000000), wk =   2.0000000

     Initial potential from superposition of free atoms

     starting charge     306.9873, renormalised to     307.0000

     negative rho (up, down):  1.407E-04 0.000E+00

Carrying out rVV10 run using the following parameters:
Nqs =      20    Nr_points =    1024   r_max =   100.000
b_value =  6.30000    beta =  0.00901
     q_mesh =  0.00010000  0.00030000  0.00058939  0.00100810
               0.00161396  0.00249058  0.00375900  0.00559430
               0.00824984  0.01209221  0.01765183  0.02569619
               0.03733578  0.05417739  0.07854596  0.11380545
               0.16482331  0.23864234  0.34545298  0.50000000

Gradients computed in Reciprocal space

     Starting wfcs are  213 randomized atomic wfcs

     Self-consistent Calculation

     iteration #  1     ecut=    80.00 Ry     beta= 0.70
     Davidson diagonalization with overlap
     ethr =  1.00E-02,  avg # of iterations =  2.0

     Threshold (ethr) on eigenvalues was too large:
     Diagonalizing with lowered threshold

     Davidson diagonalization with overlap
     ethr =  3.86E-04,  avg # of iterations =  4.0

[...]

     total energy              =   -2205.52325280 Ry
     estimated scf accuracy    <       1.46902862 Ry

[...]

     iteration #  4     ecut=    80.00 Ry     beta= 0.70
     Davidson diagonalization with overlap
     c_bands:  1 eigenvalues not converged
     ethr =  2.40E-05,  avg # of iterations = 20.0

[...]

     iteration #  8     ecut=    80.00 Ry     beta= 0.70
     Davidson diagonalization with overlap
     c_bands:  1 eigenvalues not converged
     ethr =  3.17E-06,  avg # of iterations = 20.0

[...]

     End of self-consistent calculation

          k = 0.0000 0.0000 0.0000 (105382 PWs)   bands (ev):

   -62.9206 -62.9043 -62.8090 -62.7721 -62.7545 -62.7289 -62.7191 -62.7114
   -62.7047 -62.5371 -62.5083 -62.4342 -37.2079 -37.1604 -37.1557 -37.1178
   -37.0969 -37.0736 -37.0553 -37.0189 -37.0082 -36.9885 -36.9761 -36.9599
   -36.9399 -36.9280 -36.9208 -36.9118 -36.9074 -36.9007 -36.8929 -36.8870
   -36.8816 -36.8606 -36.8587 -36.8249 -36.8017 -36.7869 -36.7779 -36.7306
   -36.7233 -36.7097 -36.6863 -36.6520 -36.6166 -36.5822 -36.4855 -36.4668
   -17.4996 -15.7976 -15.0397 -15.0135 -14.8393 -14.8181 -14.6320 -14.3809
   -14.3767 -14.3398 -14.3022 -14.2695 -14.2456 -14.1797 -14.1067 -14.0214
   -14.0159 -14.0035 -13.9210 -13.8087 -13.7653 -13.7195 -13.6870 -10.0950
    -7.6028  -7.3535  -7.3232  -7.2454  -7.1898  -7.1327  -7.1086  -7.0186
    -6.7780  -6.6852  -6.6648  -6.6563  -6.5860  -6.4259  -6.4139  -6.3987
    -6.3343  -6.1828  -6.1413  -5.8923  -5.8793  -5.8226  -5.7393  -5.7106
    -5.6744  -5.6397  -5.5792  -5.5466  -5.5272  -5.4522  -5.4378  -5.4154
    -5.3600  -5.2918  -5.1649  -5.0891  -4.9964  -4.9430  -4.8849  -4.8305
    -4.8160  -4.7651  -4.7057  -4.5382  -4.4096  -4.2649  -4.2118  -4.1182
    -4.0792  -4.0386  -3.9320  -3.8013  -3.7366  -3.6963  -3.6493  -3.5927
    -3.5590  -3.4808  -3.4668  -3.4404  -3.3902  -3.3630  -3.3400  -3.2917
    -3.2635  -3.1422  -3.0412  -2.8791  -2.8278  -2.8032  -2.6764  -2.6249
    -2.6162  -2.5689  -2.5664  -2.5251  -2.4311  -2.1518  -1.9163  -1.8904
    -1.8160  -0.6480  -0.5880  -0.2418  -0.1294  -0.0985  -0.0623   0.0284
     0.0904   0.2092   0.2350   0.2800   0.3192   0.4012   0.4906   0.5503
     0.5828   0.6371   0.6436   0.6872   0.7107   0.7708   0.7937   0.8340
     0.8534   0.8819   0.9268   0.9399   1.0418   1.0886   1.1331   1.2931
     1.4398

     the Fermi energy is    -0.6861 ev

!    total energy              =   -2205.43634662 Ry
     estimated scf accuracy    <       0.00000028 Ry
     smearing contrib. (-TS)   =      -0.00857090 Ry
     internal energy E=F+TS    =   -2205.42777572 Ry

     The total energy is F=E-TS. E is the sum of the following terms:
     one-electron contribution =  -18050.10590080 Ry
     hartree contribution      =    9012.65783676 Ry
[...]
     atom    3 type  2   force =     0.04184296   -0.06033700  -37.62961891
     atom    4 type  1   force =    -0.76499297    0.90607269    0.86956711
     atom    5 type  2   force =    -0.81366886    1.47885991   38.14032845
     atom    6 type  2   force =     0.16122802   -0.12159328  -37.85666953
     atom    7 type  1   force =    -2.69224737   -2.60886607    1.43917976
     atom    8 type  2   force =    -1.34946958    0.04950343   37.89440833
     atom    9 type  2   force =     0.23983999    0.00009182  -37.85259252
     atom   10 type  1   force =    -0.23504470   -0.72031561    2.74022874
     atom   11 type  2   force =    -0.47475580   -1.97414367   36.26096993
     atom   12 type  2   force =     0.14723742    0.23718886  -37.85380972
     atom   13 type  1   force =     0.10786517    0.47110178    2.67195018
     atom   14 type  2   force =    -0.04961855    0.08906906   38.68155483
     atom   15 type  2   force =    -0.02292045   -0.13092908  -37.71044893
     atom   16 type  1   force =     1.03250543    3.86638878    1.61172513
     atom   17 type  2   force =     0.90877189    1.24188465   38.68672675
     atom   18 type  2   force =    -0.20388807   -0.30898010  -38.31621051
     atom   19 type  1   force =     2.89410005   -1.18779844    3.38059172
     atom   20 type  2   force =     0.11380284    0.07974468  -38.43187335
     atom   21 type  1   force =    -0.46181067   -0.86707178    0.81858584
     atom   22 type  2   force =     0.45751037   -1.58037799   38.33861744
     atom   23 type  2   force =    -0.17887682    0.06920274  -37.51889590
     atom   24 type  1   force =     0.01514990    0.36553918    2.52289733
     atom   25 type  2   force =     0.19594745    0.00124963   38.98017556
     atom   26 type  2   force =    -0.05179024   -0.20915526  -37.43479506
     atom   27 type  1   force =    -0.05489137    0.69310079    0.45530520
     atom   28 type  2   force =    -0.10865499    0.62348515   38.38467343
     atom   29 type  2   force =    -0.05708317   -0.05858057  -37.75657710
     atom   30 type  1   force =    -0.02014518   -0.68754782    1.55185472
     atom   31 type  2   force =     1.05683370    0.25162707   38.30071989
     atom   32 type  2   force =    -0.30850575    0.18931613  -37.88666424
     atom   33 type  1   force =     0.74577584   -0.72433089    3.33963315
     atom   34 type  2   force =     0.04869015   -0.66350291   38.86902070
     atom   35 type  2   force =     0.00958481    0.07813334  -37.49318107
     atom   36 type  3   force =    -0.07897190    0.06823348    8.63764294
     The local contribution  to forces
     atom    1 type  1   force =     0.07556763   -0.92125940   -2.20701246
     atom    2 type  2   force =     0.17733557   -0.23206203  -38.71354293
     atom    3 type  2   force =    -0.03909480    0.07203633   37.38287259
     atom    4 type  1   force =     0.76107052   -0.91116389   -0.87066870
     atom    5 type  2   force =     0.80701555   -1.45714388  -37.90834293
     atom    6 type  2   force =    -0.15954892    0.12769182   37.61084930
     atom    7 type  1   force =     2.72510112    2.61292270   -1.42901208
     atom    8 type  2   force =     1.34890688   -0.04929944  -37.65658448
     atom    9 type  2   force =    -0.23137308    0.01043872   37.60084187
     atom   10 type  1   force =     0.22217607    0.71269517   -2.73624159
     atom   11 type  2   force =     0.47469091    1.88673062  -36.50257651
     atom   12 type  2   force =    -0.14289313   -0.22439101   37.60143912
     atom   13 type  1   force =    -0.10861966   -0.50060397   -2.67034644
     atom   14 type  2   force =     0.04773474   -0.07434921  -38.44550279
     atom   15 type  2   force =     0.02237059    0.14022686   37.46885662
     atom   16 type  1   force =    -1.04167825   -3.91204838   -1.58968208
     atom   17 type  2   force =    -0.90593293   -1.21615282  -38.45178520
     atom   18 type  2   force =     0.20686283    0.31438700   38.07627141
     atom   19 type  1   force =    -2.93160849    1.19269287   -3.35543664
     atom   20 type  2   force =    -0.11622368   -0.06857276   38.18961351
     atom   21 type  1   force =     0.46765643    0.84848792   -0.81312297
     atom   22 type  2   force =    -0.45781112    1.57994753  -38.10313782
     atom   23 type  2   force =     0.16834563   -0.05927555   37.27153083
     atom   24 type  1   force =    -0.01712663   -0.38953886   -2.52238856
     atom   25 type  2   force =    -0.19592879    0.01002625  -38.73708636
     atom   26 type  2   force =     0.05011951    0.21958515   37.18765774
     atom   27 type  1   force =     0.05445306   -0.70440939   -0.45853403
     atom   28 type  2   force =     0.11070693   -0.60851452  -38.13556763
     atom   29 type  2   force =     0.05700070    0.06766169   37.51213887
     atom   30 type  1   force =     0.01538959    0.67229272   -1.56036018
     atom   31 type  2   force =    -1.04605350   -0.25413608  -38.05712912
     atom   32 type  2   force =     0.30696156   -0.17520321   37.64081101
     atom   33 type  1   force =    -0.74572436    0.71913573   -3.34152071
     atom   34 type  2   force =    -0.04192839    0.66765543  -38.62628216
     atom   35 type  2   force =    -0.00834522   -0.06799281   37.24810915
     atom   36 type  3   force =     0.07713106   -0.05514825   -8.57680538
     The core correction contribution to forces
     atom    1 type  1   force =     0.00000000    0.00000000    0.00000000
     atom    2 type  2   force =     0.00007145    0.00114802    0.02028028
     atom    3 type  2   force =     0.00012435    0.00061653   -0.02104876
     atom    4 type  1   force =     0.00000000    0.00000000    0.00000000
     atom    5 type  2   force =    -0.00060448    0.00117008    0.02012473
     atom    6 type  2   force =     0.00005849    0.00015290   -0.02077516
     atom    7 type  1   force =     0.00000000    0.00000000    0.00000000
     atom    8 type  2   force =    -0.00007583    0.00011046    0.02031206
     atom    9 type  2   force =     0.00062195    0.00057971   -0.02104213
     atom   10 type  1   force =     0.00000000    0.00000000    0.00000000
     atom   11 type  2   force =     0.00021499   -0.00585060   -0.00957801
     atom   12 type  2   force =     0.00045529    0.00097282   -0.02124938
     atom   13 type  1   force =     0.00000000    0.00000000    0.00000000
     atom   14 type  2   force =    -0.00022804    0.00076450    0.02028309
     atom   15 type  2   force =    -0.00008007    0.00054902   -0.02073152
     atom   16 type  1   force =     0.00000000    0.00000000    0.00000000
     atom   17 type  2   force =     0.00037042    0.00130659    0.02039382
     atom   18 type  2   force =    -0.00007420   -0.00015792   -0.02072357
     atom   19 type  1   force =     0.00000000    0.00000000    0.00000000
     atom   20 type  2   force =    -0.00006157    0.00047914   -0.02114537
     atom   21 type  1   force =     0.00000000    0.00000000    0.00000000
     atom   22 type  2   force =    -0.00031883   -0.00045678    0.02005318
     atom   23 type  2   force =    -0.00084132    0.00040598   -0.02081738
     atom   24 type  1   force =     0.00000000    0.00000000    0.00000000
     atom   25 type  2   force =    -0.00001079    0.00052174    0.02064690
     atom   26 type  2   force =    -0.00010905    0.00042159   -0.02094205
     atom   27 type  1   force =     0.00000000    0.00000000    0.00000000
     atom   28 type  2   force =     0.00016124    0.00096771    0.02099074
     atom   29 type  2   force =    -0.00003114    0.00034005   -0.02073500
     atom   30 type  1   force =     0.00000000    0.00000000    0.00000000
     atom   31 type  2   force =     0.00048173    0.00010692    0.02068249
     atom   32 type  2   force =    -0.00031132    0.00081115   -0.02084903
     atom   33 type  1   force =     0.00000000    0.00000000    0.00000000
     atom   34 type  2   force =     0.00045270   -0.00007591    0.02067750
     atom   35 type  2   force =     0.00006617    0.00063876   -0.02097939
     atom   36 type  3   force =     0.00000000    0.00000000    0.00000000
     The Hubbard contrib.    to forces
     atom    1 type  1   force =     0.00000000    0.00000000    0.00000000
     atom    2 type  2   force =     0.00000000    0.00000000    0.00000000
     atom    3 type  2   force =     0.00000000    0.00000000    0.00000000
     atom    4 type  1   force =     0.00000000    0.00000000    0.00000000
     atom    5 type  2   force =     0.00000000    0.00000000    0.00000000
     atom    6 type  2   force =     0.00000000    0.00000000    0.00000000
     atom    7 type  1   force =     0.00000000    0.00000000    0.00000000
     atom    8 type  2   force =     0.00000000    0.00000000    0.00000000
     atom    9 type  2   force =     0.00000000    0.00000000    0.00000000
     atom   10 type  1   force =     0.00000000    0.00000000    0.00000000
     atom   11 type  2   force =     0.00000000    0.00000000    0.00000000
     atom   12 type  2   force =     0.00000000    0.00000000    0.00000000
     atom   13 type  1   force =     0.00000000    0.00000000    0.00000000
     atom   14 type  2   force =     0.00000000    0.00000000    0.00000000
     atom   15 type  2   force =     0.00000000    0.00000000    0.00000000
     atom   16 type  1   force =     0.00000000    0.00000000    0.00000000
     atom   17 type  2   force =     0.00000000    0.00000000    0.00000000
     atom   18 type  2   force =     0.00000000    0.00000000    0.00000000
     atom   19 type  1   force =     0.00000000    0.00000000    0.00000000
     atom   20 type  2   force =     0.00000000    0.00000000    0.00000000
     atom   21 type  1   force =     0.00000000    0.00000000    0.00000000
     atom   22 type  2   force =     0.00000000    0.00000000    0.00000000
     atom   23 type  2   force =     0.00000000    0.00000000    0.00000000
     atom   24 type  1   force =     0.00000000    0.00000000    0.00000000
     atom   25 type  2   force =     0.00000000    0.00000000    0.00000000
     atom   26 type  2   force =     0.00000000    0.00000000    0.00000000
     atom   27 type  1   force =     0.00000000    0.00000000    0.00000000
     atom   28 type  2   force =     0.00000000    0.00000000    0.00000000
     atom   29 type  2   force =     0.00000000    0.00000000    0.00000000
     atom   30 type  1   force =     0.00000000    0.00000000    0.00000000
     atom   31 type  2   force =     0.00000000    0.00000000    0.00000000
     atom   32 type  2   force =     0.00000000    0.00000000    0.00000000
     atom   33 type  1   force =     0.00000000    0.00000000    0.00000000
     atom   34 type  2   force =     0.00000000    0.00000000    0.00000000
     atom   35 type  2   force =     0.00000000    0.00000000    0.00000000
     atom   36 type  3   force =     0.00000000    0.00000000    0.00000000
     The SCF correction term to forces
     atom    1 type  1   force =     0.00001237   -0.00002027    0.00005541
     atom    2 type  2   force =     0.00000137   -0.00001454    0.00003352
     atom    3 type  2   force =    -0.00000219   -0.00000575    0.00000698
     atom    4 type  1   force =     0.00001103   -0.00000971    0.00005122
     atom    5 type  2   force =    -0.00000460   -0.00000136    0.00002871
     atom    6 type  2   force =     0.00000693   -0.00000145    0.00000911
     atom    7 type  1   force =     0.00000841    0.00001640    0.00007186
     atom    8 type  2   force =     0.00001009    0.00000131    0.00003984
     atom    9 type  2   force =     0.00000869   -0.00000246   -0.00000122
     atom   10 type  1   force =     0.00001433    0.00000801    0.00006576
     atom   11 type  2   force =     0.00000088    0.00001233    0.00003992
     atom   12 type  2   force =     0.00000788    0.00001303    0.00000645
     atom   13 type  1   force =    -0.00000871   -0.00000538    0.00008410
     atom   14 type  2   force =    -0.00000631   -0.00000922    0.00004123
     atom   15 type  2   force =     0.00000344   -0.00000409    0.00000934
     atom   16 type  1   force =    -0.00001489   -0.00001231    0.00007615
     atom   17 type  2   force =    -0.00000496    0.00000045    0.00003575
     atom   18 type  2   force =    -0.00000193   -0.00000244    0.00001779
     atom   19 type  1   force =    -0.00003564    0.00000223    0.00008953
     atom   20 type  2   force =    -0.00000031   -0.00000411    0.00000631
     atom   21 type  1   force =    -0.00000571    0.00001133    0.00007935
     atom   22 type  2   force =    -0.00000595    0.00000547    0.00004387
     atom   23 type  2   force =    -0.00000393    0.00000778    0.00001616
     atom   24 type  1   force =     0.00000843   -0.00001035    0.00006137
     atom   25 type  2   force =     0.00000259   -0.00000572    0.00003666
     atom   26 type  2   force =    -0.00000592   -0.00000418    0.00001433
     atom   27 type  1   force =    -0.00000309   -0.00000390    0.00008132
     atom   28 type  2   force =     0.00000890    0.00000035    0.00002841
     atom   29 type  2   force =    -0.00000355   -0.00000066    0.00001219
     atom   30 type  1   force =     0.00000619    0.00001404    0.00007461
     atom   31 type  2   force =     0.00000605    0.00000108    0.00004177
     atom   32 type  2   force =    -0.00000589   -0.00000005    0.00001345
     atom   33 type  1   force =    -0.00000764   -0.00000356    0.00008207
     atom   34 type  2   force =     0.00000276    0.00000715    0.00003847
     atom   35 type  2   force =    -0.00000352    0.00000899    0.00001244
     atom   36 type  3   force =    -0.00000034    0.00000066    0.00000567

     Total force =     0.005146     Total SCF correction =     0.000296
     Energy error            =      5.6E-05 Ry
     Gradient error          =      1.6E-03 Ry/Bohr

     bfgs converged in  27 scf cycles and  26 bfgs steps
     (criteria: energy <  1.0E-04 Ry, force <  1.0E-02 Ry/Bohr)

     End of BFGS Geometry Optimization

     Final energy             =   -2205.5972377236 Ry

     File ./MoS2-V-O.bfgs deleted, as requested
Begin final coordinates

ATOMIC_POSITIONS (angstrom)
Mo            6.5535404816        1.7356141328        2.7545414580
S             8.1293987891        0.8482249704        4.3749962535
S             8.1415646608        0.8315936349        1.1708107183
Mo            8.1228587051        4.4619349185        2.7153085582
S             6.5008953690        3.6438323586        4.2984669213
S             6.5533553865        3.5446552664        1.1143954068
Mo            6.5230894068        7.1887203102        2.6510912911
S             8.0897972365        6.2824912576        4.2864049800
S             8.1430463506        6.2936049659        1.1045533337
Mo            8.1537644592        9.9410076304        2.7743116806
S             6.5251194076        8.9569948988        4.2665844186
S             6.5898162050        9.0435551135        1.1298897608
Mo            3.4142867297        1.7415608190        2.7622314520
S             4.9805327418        0.8179952227        4.3502404063
S             4.9806305072        0.8307870837        1.1595739362
Mo            4.9491392883        4.4945161222        2.6511759181
S             3.4372262085        3.6406853954        4.3243318347
S             3.4124708955        3.5308021079        1.1007217005
Mo            3.4803132811        7.1233497196        2.6832620340
S             5.0086703623        6.2820030758        1.0515514480
Mo            4.9819756909        9.9180419427        2.7329187793
S             3.4608887386        8.9147051471        4.3314058489
S             3.4002440930        9.0003642590        1.1424469290
Mo            0.2627501914        1.7276475123        2.7716790127
S             1.8482182431        0.8301750087        4.3770447778
S             1.8410602653        0.8165520919        1.1812925488
Mo            1.8503101091        4.4656552668        2.7114650140
S             0.2603620830        3.5853010183        4.3227250335
S             0.2566785060        3.5366002697        1.1425524440
Mo            0.2663455304        7.1985640402        2.7315383144
S             1.8985505868        6.2712578594        4.3084606462
S             1.8546010967        6.2988394678        1.1127313565
Mo            1.8497102332        9.9115334404        2.7802485946
S             0.2730956884        9.0026155059        4.3655147727
S             0.2726803901        9.0332441413        1.1737987952
H             6.5098657605        9.2361759901        5.6160564416
End final coordinates

     Writing all to output data dir ./MoS2-V-O.save/

     General routines

     Parallel routines

   This run was terminated on:   8:47:49   4Nov2023

   JOB DONE.