     Program PWSCF v.7.2 starts on  3Nov2023 at 22: 5: 5

     Waiting for input...
     Reading input from standard input
Warning: card &CELL ignored
Warning: card CELL_DYNAMICS = 'BFGS', ignored
Warning: card CELL_DOFREE = '2DXY' ignored
Warning: card / ignored

     Current dimensions of program PWSCF are:
     Max number of different atomic species (ntypx) = 10
     Max number of k-points (npk) =  40000
     Max angular momentum in pseudopotentials (lmaxx) =  4

     IMPORTANT: XC functional enforced from input :
     Exchange-correlation= RVV10
                           (   1   4  13   4  26   0   0)
     Any further DFT definition will be discarded
     Please, verify this is what you really want

     gamma-point specific algorithms are used
     signal trapping enabled: kill the code with -SIGUSR1 to stop cleanly the simulation

     R & G space division:  proc/nbgrp/npool/nimage =      48
     Subspace diagonalization in iterative solution of the eigenvalue problem:
     one sub-group per band group will be used

     Using Slab Decomposition

     bravais-lattice index     =            0
     lattice parameter (alat)  =      17.8707  a.u.
     unit-cell volume          =   17436.2743 (a.u.)^3
     number of atoms/cell      =           36
     number of atomic types    =            3
     number of electrons       =       307.00
     number of Kohn-Sham states=          185
     kinetic-energy cutoff     =      80.0000  Ry
     charge density cutoff     =     400.0000  Ry
     scf convergence threshold =      1.0E-06
     mixing beta               =       0.7000
     number of iterations used =            8  local-TF  mixing
     energy convergence thresh.=      1.0E-04
     force convergence thresh. =      1.0E-02
     Exchange-correlation= RVV10
                           (   1   4  13   4  26   0   0)
     nstep                     =          200

     celldm(1)=  17.870686  celldm(2)=   0.000000  celldm(3)=   0.000000
     celldm(4)=   0.000000  celldm(5)=   0.000000  celldm(6)=   0.000000

     crystal axes: (cart. coord. in units of alat)
               a(1) = (   1.000000   0.000000   0.000000 )
               a(2) = (   0.000000   1.155671   0.000000 )
               a(3) = (   0.000000   0.000000   2.643601 )

     reciprocal axes: (cart. coord. in units 2 pi/alat)
               b(1) = (  1.000000  0.000000  0.000000 )
               b(2) = (  0.000000  0.865298  0.000000 )
               b(3) = (  0.000000  0.000000  0.378272 )

     PseudoPot. # 1 for Mo read from file:
     ../pseudo/Mo_ONCV_PBE-1.0.oncvpsp.upf
     MD5 check sum: 1b5d28e075c9ccadda658a603575cd1f
     Pseudo is Norm-conserving, Zval = 14.0
     Generated using ONCVPSP code by D. R. Hamann
     Using radial grid of 1526 points,  6 beta functions with:
                l(1) =   0
                l(2) =   0
                l(3) =   1
                l(4) =   1
                l(5) =   2
                l(6) =   2

     PseudoPot. # 2 for S  read from file:
     ../pseudo/s_pbe_v1.4.uspp.F.UPF
     MD5 check sum: 88d86576ff6df21479756cfb9bdac1df
     Pseudo is Ultrasoft + core correction, Zval =  6.0
     Generated by new atomic code, or converted to UPF format
     Using radial grid of  907 points,  6 beta functions with:
                l(1) =   0
                l(2) =   0
                l(3) =   1
                l(4) =   1
                l(5) =   2
                l(6) =   2
     Q(r) pseudized with  8 coefficients,  rinner =    1.300   1.300   1.300
                                                       1.300   1.300

     PseudoPot. # 3 for H  read from file:
     ../pseudo/H_ONCV_PBE-1.0.oncvpsp.upf
     MD5 check sum: 1790becc920ee074925cf490c71280fe
     Pseudo is Norm-conserving, Zval =  1.0
     Generated using ONCVPSP code by D. R. Hamann
     Using radial grid of 1166 points,  2 beta functions with:
                l(1) =   0
                l(2) =   0

     atomic species   valence    mass     pseudopotential
        Mo            14.00    95.94000     Mo( 1.00)
        S              6.00    32.06500     S ( 1.00)
        H              1.00     1.00794     H ( 1.00)

     No symmetry found

   Cartesian axes

     site n.     atom                  positions (alat units)
         1           Mo  tau(   1) = (   0.6952221   0.1890506   0.2985846  )
         2           S   tau(   2) = (   0.8646417   0.0856217   0.4689279  )
         3           S   tau(   3) = (   0.8663890   0.0857843   0.1351291  )
         4           Mo  tau(   4) = (   0.8560186   0.4753274   0.2873942  )
         5           S   tau(   5) = (   0.6873294   0.3936244   0.4596353  )
         6           S   tau(   6) = (   0.6929804   0.3713468   0.1185692  )
         7           Mo  tau(   7) = (   0.6862796   0.7633098   0.2825370  )
         8           S   tau(   8) = (   0.8545980   0.6708292   0.4486168  )
         9           S   tau(   9) = (   0.8545123   0.6666874   0.1146125  )
        10           Mo  tau(  10) = (   0.8629403   1.0471007   0.3006803  )
        11           S   tau(  11) = (   0.6868280   0.9456650   0.4634891  )
        12           S   tau(  12) = (   0.6998113   0.9568511   0.1205389  )
        13           Mo  tau(  13) = (   0.3618216   0.1847309   0.2935964  )
        14           S   tau(  14) = (   0.5260962   0.0863870   0.4600448  )
        15           S   tau(  15) = (   0.5348379   0.0894875   0.1297123  )
        16           Mo  tau(  16) = (   0.5265817   0.4772436   0.2784130  )
        17           S   tau(  17) = (   0.3624753   0.3882513   0.4525556  )
        18           S   tau(  18) = (   0.3635411   0.3752055   0.1119148  )
        19           Mo  tau(  19) = (   0.3652268   0.7630864   0.2781795  )
        20           S   tau(  20) = (   0.5269494   0.6690381   0.1096838  )
        21           Mo  tau(  21) = (   0.5300192   1.0470394   0.2900995  )
        22           S   tau(  22) = (   0.3670346   0.9457522   0.4574073  )
        23           S   tau(  23) = (   0.3604225   0.9585725   0.1159032  )
        24           Mo  tau(  24) = (   0.0313099   0.1847895   0.3013130  )
        25           S   tau(  25) = (   0.1956761   0.0838230   0.4650863  )
        26           S   tau(  26) = (   0.1967693   0.0903508   0.1278874  )
        27           Mo  tau(  27) = (   0.1967578   0.4753919   0.2813011  )
        28           S   tau(  28) = (   0.0287851   0.3864324   0.4586755  )
        29           S   tau(  29) = (   0.0244514   0.3729871   0.1239344  )
        30           Mo  tau(  30) = (   0.0286728   0.7631204   0.2856894  )
        31           S   tau(  31) = (   0.2011512   0.6675435   0.4465001  )
        32           S   tau(  32) = (   0.1969214   0.6672839   0.1104564  )
        33           Mo  tau(  33) = (   0.1950294   1.0511147   0.2932237  )
        34           S   tau(  34) = (   0.0312912   0.9612169   0.4667423  )
        35           S   tau(  35) = (   0.0292670   0.9563028   0.1216485  )
        36           H   tau(  36) = (   0.8888889   0.1284079   0.5407634  )

     number of k points=     1  Gaussian smearing, width (Ry)=  0.0100
                       cart. coord. in units 2pi/alat
        k(    1) = (   0.0000000   0.0000000   0.0000000), wk =   2.0000000

     Initial potential from superposition of free atoms

     starting charge     306.9873, renormalised to     307.0000

     negative rho (up, down):  1.418E-04 0.000E+00

Carrying out rVV10 run using the following parameters:
Nqs =      20    Nr_points =    1024   r_max =   100.000
b_value =  6.30000    beta =  0.00901
     q_mesh =  0.00010000  0.00030000  0.00058939  0.00100810
               0.00161396  0.00249058  0.00375900  0.00559430
               0.00824984  0.01209221  0.01765183  0.02569619
               0.03733578  0.05417739  0.07854596  0.11380545
               0.16482331  0.23864234  0.34545298  0.50000000

Gradients computed in Reciprocal space

     Starting wfcs are  213 randomized atomic wfcs

     Self-consistent Calculation

     iteration #  1     ecut=    80.00 Ry     beta= 0.70
     Davidson diagonalization with overlap
     ethr =  1.00E-02,  avg # of iterations =  3.0

     Threshold (ethr) on eigenvalues was too large:
     Diagonalizing with lowered threshold

     Davidson diagonalization with overlap
     ethr =  4.22E-04,  avg # of iterations =  4.0

[...]

     total energy              =   -2204.88661807 Ry
     estimated scf accuracy    <       1.58482531 Ry

[...]

     iteration # 13     ecut=    80.00 Ry     beta= 0.70
     Davidson diagonalization with overlap
     c_bands:  1 eigenvalues not converged
     ethr =  3.41E-08,  avg # of iterations = 20.0

[...]

     End of self-consistent calculation

          k = 0.0000 0.0000 0.0000 (105382 PWs)   bands (ev):

   -62.9366 -62.8647 -62.8383 -62.8149 -62.7858 -62.7707 -62.7674 -62.7569
   -62.7310 -62.5241 -62.4990 -62.4515 -37.2439 -37.1599 -37.1445 -37.1201
   -37.0999 -37.0791 -37.0690 -37.0588 -37.0330 -37.0085 -36.9998 -36.9981
   -36.9876 -36.9686 -36.9579 -36.9528 -36.9488 -36.9452 -36.9323 -36.9216
   -36.9004 -36.8898 -36.8593 -36.8522 -36.8371 -36.8162 -36.7922 -36.7592
   -36.7121 -36.6897 -36.6801 -36.6573 -36.6361 -36.5977 -36.4870 -36.4756
   -18.9635 -15.8284 -15.1054 -15.0181 -14.8923 -14.7976 -14.6734 -14.4212
   -14.3930 -14.3685 -14.3353 -14.2966 -14.2729 -14.2051 -14.1065 -14.0807
   -14.0291 -14.0105 -13.9534 -13.8946 -13.7479 -13.7413 -13.7037 -10.4229
    -7.6577  -7.4342  -7.3934  -7.2257  -7.2045  -7.1420  -7.1101  -7.0307
    -6.7856  -6.7408  -6.6821  -6.6358  -6.5642  -6.5082  -6.4445  -6.3980
    -6.3537  -6.2730  -6.2071  -5.9002  -5.8754  -5.8235  -5.7737  -5.7611
    -5.7121  -5.6675  -5.5848  -5.5755  -5.5375  -5.4868  -5.4701  -5.4565
    -5.3667  -5.2802  -5.1967  -5.1225  -5.0462  -5.0026  -4.9078  -4.8812
    -4.8640  -4.7377  -4.6235  -4.4972  -4.4300  -4.3169  -4.2193  -4.1825
    -4.1635  -3.9983  -3.9503  -3.8555  -3.8022  -3.7207  -3.6708  -3.6620
    -3.6095  -3.5498  -3.4976  -3.4599  -3.4413  -3.4165  -3.3574  -3.3115
    -3.3021  -3.1446  -3.1067  -2.8511  -2.8296  -2.7689  -2.7072  -2.6771
    -2.6458  -2.6315  -2.6008  -2.5175  -2.4301  -2.1707  -1.9440  -1.9261
    -1.8164  -0.6148  -0.5743  -0.3355  -0.1606  -0.0921  -0.0645   0.0426
     0.0487   0.1984   0.2306   0.2593   0.2932   0.3526   0.4002   0.5245
     0.5646   0.6054   0.6486   0.6577   0.6838   0.7343   0.7578   0.7991
     0.8466   0.8817   0.8958   0.9785   1.0203   1.0588   1.0917   1.3937
     1.4307

     the Fermi energy is    -0.6609 ev

!    total energy              =   -2204.79953391 Ry
     estimated scf accuracy    <       0.00000046 Ry
     smearing contrib. (-TS)   =      -0.00880887 Ry
     internal energy E=F+TS    =   -2204.79072504 Ry

     The total energy is F=E-TS. E is the sum of the following terms:
     one-electron contribution =  -18059.44251769 Ry
     hartree contribution      =    9017.06436562 Ry
     xc contribution           =    -385.79790201 Ry
     ewald contribution        =    7223.38532904 Ry

     convergence has been achieved in  17 iterations

[...]

     Forces acting on atoms (cartesian axes, Ry/au):

[...]
     atom    3 type  2   force =     0.05847918   -0.32992779  -36.59560393
     atom    4 type  1   force =    -0.11072973    0.61934555    0.52499911
     atom    5 type  2   force =    -0.91459942    1.33391908   38.58545502
     atom    6 type  2   force =     0.36176647   -0.32656650  -38.46681273
     atom    7 type  1   force =    -2.63063670   -1.78957675    3.90150942
     atom    8 type  2   force =    -1.09277183    0.21045790   38.27108711
     atom    9 type  2   force =     0.23342229    0.22567210  -37.60830952
     atom   10 type  1   force =    -0.57996775    0.08416179    4.47043453
     atom   11 type  2   force =    -0.56359043   -1.37056905   38.80897845
     atom   12 type  2   force =     0.26448948    0.34098207  -37.54872396
     atom   13 type  1   force =     0.10088099    0.66266950    1.69137991
     atom   14 type  2   force =     0.00391334   -0.15945653   38.55390477
     atom   15 type  2   force =     0.21704864   -0.32622089  -37.72862186
     atom   16 type  1   force =    -0.77663558    3.96304816    0.61133263
     atom   17 type  2   force =     0.84771890    1.38320390   38.06485268
     atom   18 type  2   force =    -0.16105403   -0.18038696  -38.13038540
     atom   19 type  1   force =     2.69196590   -2.53949492    1.50929988
     atom   20 type  2   force =    -0.02685404    0.07441741  -38.57050472
     atom   21 type  1   force =     0.50046642   -0.32430160    1.25446725
     atom   22 type  2   force =     0.44217950   -1.48066232   38.66516512
     atom   23 type  2   force =    -0.16205097    0.36635490  -38.09987162
     atom   24 type  1   force =    -0.51262808   -0.23384276    1.98251468
     atom   25 type  2   force =     0.22762124   -0.03329449   38.88275740
     atom   26 type  2   force =    -0.23393257   -0.24782237  -37.73686393
     atom   27 type  1   force =     0.69310574    0.90521600    0.40994704
     atom   28 type  2   force =     0.07582517    0.63650675   38.36352079
     atom   29 type  2   force =    -0.11153761   -0.11203417  -37.94810047
     atom   30 type  1   force =    -0.16374805   -0.71228233    2.39500312
     atom   31 type  2   force =     1.42791182    0.05169505   38.15251495
     atom   32 type  2   force =    -0.27824274    0.04243176  -37.93769424
     atom   33 type  1   force =     0.05981954   -0.39316146    2.82058676
     atom   34 type  2   force =     0.10049820   -0.42310069   39.05418806
     atom   35 type  2   force =    -0.10986578    0.28714777  -37.32706077
     atom   36 type  3   force =     0.00912075    0.18026612    8.70122439
     The local contribution  to forces
     atom    1 type  1   force =    -0.30148681    0.04445459   -2.08355514
     atom    2 type  2   force =     0.19462214    0.26778832  -36.18150740
     atom    3 type  2   force =    -0.05595185    0.33852316   36.33010188
     atom    4 type  1   force =     0.11296664   -0.63256960   -0.52906144
     atom    5 type  2   force =     0.90665809   -1.30330725  -38.35857798
     atom    6 type  2   force =    -0.36250391    0.33335019   38.22626424
     atom    7 type  1   force =     2.67539922    1.80399026   -3.87624298
     atom    8 type  2   force =     1.08614075   -0.21084125  -38.02723183
     atom    9 type  2   force =    -0.23089103   -0.20564033   37.36153045
     atom   10 type  1   force =     0.58026684   -0.06222232   -4.45388665
     atom   11 type  2   force =     0.55423628    1.36424009  -38.57487978
     atom   12 type  2   force =    -0.25624297   -0.32814229   37.30366755
     atom   13 type  1   force =    -0.10129544   -0.69011678   -1.68394858
     atom   14 type  2   force =    -0.01092696    0.16343778  -38.31805965
     atom   15 type  2   force =    -0.21516743    0.33020156   37.48852969
     atom   16 type  1   force =     0.78693842   -4.02111205   -0.58988450
     atom   17 type  2   force =    -0.84013046   -1.35983719  -37.83207562
     atom   18 type  2   force =     0.15963803    0.18646946   37.88607790
     atom   19 type  1   force =    -2.71952573    2.54949580   -1.50312216
     atom   20 type  2   force =     0.02811506   -0.06021783   38.33033731
     atom   21 type  1   force =    -0.49580285    0.31152006   -1.25724756
     atom   22 type  2   force =    -0.43519616    1.47253986  -38.42948506
     atom   23 type  2   force =     0.15753606   -0.35865408   37.85858048
     atom   24 type  1   force =     0.49499162    0.20719935   -1.97237185
     atom   25 type  2   force =    -0.22035677    0.03896607  -38.64641412
     atom   26 type  2   force =     0.23003759    0.25485368   37.49245037
     atom   27 type  1   force =    -0.69659898   -0.92244977   -0.41351236
     atom   28 type  2   force =    -0.07381911   -0.61327727  -38.12397734
     atom   29 type  2   force =     0.11053012    0.12287455   37.70290505
     atom   30 type  1   force =     0.15589296    0.70083231   -2.39873571
     atom   31 type  2   force =    -1.41573778   -0.05125643  -37.91019172
     atom   32 type  2   force =     0.27372777   -0.03014462   37.69095611
     atom   33 type  1   force =    -0.06200537    0.39119216   -2.82326802
     atom   34 type  2   force =    -0.09294580    0.42417292  -38.81133150
     atom   35 type  2   force =     0.11080759   -0.27438382   37.08014151
     atom   36 type  3   force =    -0.00762438   -0.17313024   -8.64118086
     The core correction contribution to forces
     atom    1 type  1   force =     0.00000000    0.00000000    0.00000000
     atom    2 type  2   force =    -0.00073353   -0.00286309   -0.01079963
     atom    3 type  2   force =     0.00013066    0.00013434   -0.02156838
     atom    4 type  1   force =     0.00000000    0.00000000    0.00000000
     atom    5 type  2   force =    -0.00074439    0.00191907    0.01986605
     atom    6 type  2   force =     0.00028678    0.00001772   -0.02078590
     atom    7 type  1   force =     0.00000000    0.00000000    0.00000000
     atom    8 type  2   force =    -0.00033579    0.00030064    0.02062323
     atom    9 type  2   force =     0.00029375    0.00119859   -0.02076221
     atom   10 type  1   force =     0.00000000    0.00000000    0.00000000
     atom   11 type  2   force =    -0.00069589   -0.00081187    0.02020211
     atom   12 type  2   force =     0.00059391    0.00068864   -0.02087144
     atom   13 type  1   force =     0.00000000    0.00000000    0.00000000
     atom   14 type  2   force =    -0.00063228   -0.00017783    0.02023735
     atom   15 type  2   force =     0.00012835    0.00000889   -0.02066385
     atom   16 type  1   force =     0.00000000    0.00000000    0.00000000
     atom   17 type  2   force =     0.00067847    0.00125346    0.02017060
     atom   18 type  2   force =    -0.00006711    0.00000426   -0.02073302
     atom   19 type  1   force =     0.00000000    0.00000000    0.00000000
     atom   20 type  2   force =    -0.00005919    0.00068052   -0.02105414
     atom   21 type  1   force =     0.00000000    0.00000000    0.00000000
     atom   22 type  2   force =     0.00018594   -0.00081406    0.02036593
     atom   23 type  2   force =    -0.00047941    0.00065930   -0.02076304
     atom   24 type  1   force =     0.00000000    0.00000000    0.00000000
     atom   25 type  2   force =     0.00078614    0.00022664    0.02029304
     atom   26 type  2   force =    -0.00020853    0.00018945   -0.02098311
     atom   27 type  1   force =     0.00000000    0.00000000    0.00000000
     atom   28 type  2   force =     0.00027998    0.00179626    0.02043648
     atom   29 type  2   force =    -0.00008748    0.00050554   -0.02089529
     atom   30 type  1   force =     0.00000000    0.00000000    0.00000000
     atom   31 type  2   force =     0.00092167    0.00021310    0.02065526
     atom   32 type  2   force =    -0.00035144    0.00067453   -0.02087299
     atom   33 type  1   force =     0.00000000    0.00000000    0.00000000
     atom   34 type  2   force =     0.00076778   -0.00031434    0.02068640
     atom   35 type  2   force =     0.00004633    0.00085868   -0.02104478
     atom   36 type  3   force =     0.00000000    0.00000000    0.00000000
     The Hubbard contrib.    to forces
     atom    1 type  1   force =     0.00000000    0.00000000    0.00000000
     atom    2 type  2   force =     0.00000000    0.00000000    0.00000000
     atom    3 type  2   force =     0.00000000    0.00000000    0.00000000
     atom    4 type  1   force =     0.00000000    0.00000000    0.00000000
     atom    5 type  2   force =     0.00000000    0.00000000    0.00000000
     atom    6 type  2   force =     0.00000000    0.00000000    0.00000000
     atom    7 type  1   force =     0.00000000    0.00000000    0.00000000
     atom    8 type  2   force =     0.00000000    0.00000000    0.00000000
     atom    9 type  2   force =     0.00000000    0.00000000    0.00000000
     atom   10 type  1   force =     0.00000000    0.00000000    0.00000000
     atom   11 type  2   force =     0.00000000    0.00000000    0.00000000
     atom   12 type  2   force =     0.00000000    0.00000000    0.00000000
     atom   13 type  1   force =     0.00000000    0.00000000    0.00000000
     atom   14 type  2   force =     0.00000000    0.00000000    0.00000000
     atom   15 type  2   force =     0.00000000    0.00000000    0.00000000
     atom   16 type  1   force =     0.00000000    0.00000000    0.00000000
     atom   17 type  2   force =     0.00000000    0.00000000    0.00000000
     atom   18 type  2   force =     0.00000000    0.00000000    0.00000000
     atom   19 type  1   force =     0.00000000    0.00000000    0.00000000
     atom   20 type  2   force =     0.00000000    0.00000000    0.00000000
     atom   21 type  1   force =     0.00000000    0.00000000    0.00000000
     atom   22 type  2   force =     0.00000000    0.00000000    0.00000000
     atom   23 type  2   force =     0.00000000    0.00000000    0.00000000
     atom   24 type  1   force =     0.00000000    0.00000000    0.00000000
     atom   25 type  2   force =     0.00000000    0.00000000    0.00000000
     atom   26 type  2   force =     0.00000000    0.00000000    0.00000000
     atom   27 type  1   force =     0.00000000    0.00000000    0.00000000
     atom   28 type  2   force =     0.00000000    0.00000000    0.00000000
     atom   29 type  2   force =     0.00000000    0.00000000    0.00000000
     atom   30 type  1   force =     0.00000000    0.00000000    0.00000000
     atom   31 type  2   force =     0.00000000    0.00000000    0.00000000
     atom   32 type  2   force =     0.00000000    0.00000000    0.00000000
     atom   33 type  1   force =     0.00000000    0.00000000    0.00000000
     atom   34 type  2   force =     0.00000000    0.00000000    0.00000000
     atom   35 type  2   force =     0.00000000    0.00000000    0.00000000
     atom   36 type  3   force =     0.00000000    0.00000000    0.00000000
     The SCF correction term to forces
     atom    1 type  1   force =    -0.00000098   -0.00003651   -0.00002420
     atom    2 type  2   force =    -0.00002617   -0.00003775   -0.00002877
     atom    3 type  2   force =     0.00000604    0.00000818    0.00000501
     atom    4 type  1   force =    -0.00001580    0.00006091   -0.00005488
     atom    5 type  2   force =     0.00000713    0.00001852   -0.00001147
     atom    6 type  2   force =     0.00000533   -0.00000320   -0.00000462
     atom    7 type  1   force =    -0.00001286    0.00001158    0.00004166
     atom    8 type  2   force =    -0.00000570    0.00001040   -0.00000925
     atom    9 type  2   force =     0.00000520   -0.00000863    0.00000532
     atom   10 type  1   force =    -0.00002965   -0.00001723    0.00004288
     atom   11 type  2   force =    -0.00001664    0.00000006    0.00000817
     atom   12 type  2   force =    -0.00002053   -0.00000758    0.00000517
     atom   13 type  1   force =     0.00002485   -0.00004021   -0.00007194
     atom   14 type  2   force =     0.00001854   -0.00002320    0.00000423
     atom   15 type  2   force =     0.00000691    0.00000297   -0.00000822
     atom   16 type  1   force =     0.00002733    0.00004281    0.00000308
     atom   17 type  2   force =     0.00000351    0.00002876   -0.00001315
     atom   18 type  2   force =    -0.00000042    0.00000387   -0.00001165
     atom   19 type  1   force =     0.00000760    0.00001382    0.00002972
     atom   20 type  2   force =    -0.00000430    0.00001633    0.00001757
     atom   21 type  1   force =     0.00000872   -0.00007176    0.00002573
     atom   22 type  2   force =     0.00002103   -0.00001759   -0.00000283
     atom   23 type  2   force =     0.00000366   -0.00000256    0.00000643
     atom   24 type  1   force =    -0.00003860   -0.00003697   -0.00005859
     atom   25 type  2   force =     0.00000674   -0.00002388   -0.00001312
     atom   26 type  2   force =    -0.00000069   -0.00000693   -0.00001729
     atom   27 type  1   force =    -0.00000441    0.00009060   -0.00005265
     atom   28 type  2   force =    -0.00000959    0.00002154   -0.00002214
     atom   29 type  2   force =    -0.00000655    0.00001064   -0.00001804
     atom   30 type  1   force =     0.00000959   -0.00001394    0.00001646
     atom   31 type  2   force =     0.00000047    0.00001886   -0.00001296
     atom   32 type  2   force =    -0.00000568    0.00000006    0.00000526
     atom   33 type  1   force =    -0.00001319   -0.00005585   -0.00003093
     atom   34 type  2   force =     0.00000390   -0.00001072   -0.00000132
     atom   35 type  2   force =     0.00002069   -0.00000985    0.00000066
     atom   36 type  3   force =    -0.00000345   -0.00000376    0.00000005

     Total force =     0.006441     Total SCF correction =     0.000256
     Energy error            =      8.8E-05 Ry
     Gradient error          =      2.5E-03 Ry/Bohr

     bfgs converged in  23 scf cycles and  22 bfgs steps
     (criteria: energy <  1.0E-04 Ry, force <  1.0E-02 Ry/Bohr)

     End of BFGS Geometry Optimization

     Final energy             =   -2205.5908941690 Ry

     File ./MoS2-V-O.bfgs deleted, as requested
Begin final coordinates

ATOMIC_POSITIONS (angstrom)
Mo            6.5373792489        1.7940433200        2.7505118467
S             8.1349712389        0.8759117077        4.2755303193
S             8.1466267808        0.8284991798        1.2105961244
Mo            8.1434346339        4.4830750426        2.7068096017
S             6.5310938521        3.6891855818        4.3128038585
S             6.5810901091        3.5637541213        1.0850173820
Mo            6.5035428306        7.1626683603        2.6876022664
S             8.0954699828        6.2927447939        4.3056737089
S             8.1470342160        6.3234259863        1.1224442378
Mo            8.1342931423        9.8877471115        2.7959164468
S             6.4941251172        8.9183262824        4.3493999965
S             6.5965977335        9.0156515346        1.1446188423
Mo            3.4342430678        1.7621090456        2.7358930632
S             4.9867037848        0.8344868963        4.3305916415
S             5.0030078999        0.8451002206        1.1478785686
Mo            5.0290964017        4.5297503236        2.6266867408
S             3.4900765138        3.6729249631        4.2794516830
S             3.4337163190        3.5717983971        1.0897954357
Mo            3.4701126432        7.2321473638        2.6418005768
S             4.9924586448        6.3251581822        1.0337721776
Mo            4.9972273661        9.9206202365        2.7277807676
S             3.4657838018        8.9723377596        4.3258149192
S             3.3993812426        9.0657450976        1.1112095134
Mo            0.3065196239        1.7775220906        2.7604649369
S             1.8778299521        0.8665519766        4.3593582586
S             1.8507318054        0.8511634587        1.1547470598
Mo            1.8758726656        4.5013784031        2.6994245297
S             0.2963482141        3.6318405840        4.3155639407
S             0.2828148672        3.5697216854        1.1245568980
Mo            0.2830698232        7.2149917564        2.7398047584
S             1.9379845803        6.3146033157        4.2907607998
S             1.8491666187        6.3310233721        1.0988661834
Mo            1.8492017356        9.9532010605        2.7616067566
S             0.2899176045        9.0078616857        4.3724312320
S             0.2566135438        9.0472857739        1.1802946496
H             8.1748182948        1.0609119617        5.6352678544
End final coordinates

     Writing all to output data dir ./MoS2-V-O.save/

     General routines

     Parallel routines

   This run was terminated on:  22:45: 1   3Nov2023

   JOB DONE.