     Program PWSCF v.7.2 starts on  3Nov2023 at 23: 0:45

     Waiting for input...
     Reading input from standard input
Warning: card &CELL ignored
Warning: card CELL_DYNAMICS = 'BFGS', ignored
Warning: card CELL_DOFREE = '2DXY' ignored
Warning: card / ignored

     Current dimensions of program PWSCF are:
     Max number of different atomic species (ntypx) = 10
     Max number of k-points (npk) =  40000
     Max angular momentum in pseudopotentials (lmaxx) =  4

     IMPORTANT: XC functional enforced from input :
     Exchange-correlation= RVV10
                           (   1   4  13   4  26   0   0)
     Any further DFT definition will be discarded
     Please, verify this is what you really want

     gamma-point specific algorithms are used
     signal trapping enabled: kill the code with -SIGUSR1 to stop cleanly the simulation

     R & G space division:  proc/nbgrp/npool/nimage =      48
     Subspace diagonalization in iterative solution of the eigenvalue problem:
     one sub-group per band group will be used

     Using Slab Decomposition

     bravais-lattice index     =            0
     lattice parameter (alat)  =      17.8707  a.u.
     unit-cell volume          =   17436.2743 (a.u.)^3
     number of atoms/cell      =           36
     number of atomic types    =            3
     number of electrons       =       307.00
     number of Kohn-Sham states=          185
     kinetic-energy cutoff     =      80.0000  Ry
     charge density cutoff     =     400.0000  Ry
     scf convergence threshold =      1.0E-06
     mixing beta               =       0.7000
     number of iterations used =            8  local-TF  mixing
     energy convergence thresh.=      1.0E-04
     force convergence thresh. =      1.0E-02
     Exchange-correlation= RVV10
                           (   1   4  13   4  26   0   0)
     nstep                     =          200

     celldm(1)=  17.870686  celldm(2)=   0.000000  celldm(3)=   0.000000
     celldm(4)=   0.000000  celldm(5)=   0.000000  celldm(6)=   0.000000

     crystal axes: (cart. coord. in units of alat)
               a(1) = (   1.000000   0.000000   0.000000 )
               a(2) = (   0.000000   1.155671   0.000000 )
               a(3) = (   0.000000   0.000000   2.643601 )

     reciprocal axes: (cart. coord. in units 2 pi/alat)
               b(1) = (  1.000000  0.000000  0.000000 )
               b(2) = (  0.000000  0.865298  0.000000 )
               b(3) = (  0.000000  0.000000  0.378272 )

     PseudoPot. # 1 for Mo read from file:
     ../pseudo/Mo_ONCV_PBE-1.0.oncvpsp.upf
     MD5 check sum: 1b5d28e075c9ccadda658a603575cd1f
     Pseudo is Norm-conserving, Zval = 14.0
     Generated using ONCVPSP code by D. R. Hamann
     Using radial grid of 1526 points,  6 beta functions with:
                l(1) =   0
                l(2) =   0
                l(3) =   1
                l(4) =   1
                l(5) =   2
                l(6) =   2

     PseudoPot. # 2 for S  read from file:
     ../pseudo/s_pbe_v1.4.uspp.F.UPF
     MD5 check sum: 88d86576ff6df21479756cfb9bdac1df
     Pseudo is Ultrasoft + core correction, Zval =  6.0
     Generated by new atomic code, or converted to UPF format
     Using radial grid of  907 points,  6 beta functions with:
                l(1) =   0
                l(2) =   0
                l(3) =   1
                l(4) =   1
                l(5) =   2
                l(6) =   2
     Q(r) pseudized with  8 coefficients,  rinner =    1.300   1.300   1.300
                                                       1.300   1.300

     PseudoPot. # 3 for H  read from file:
     ../pseudo/H_ONCV_PBE-1.0.oncvpsp.upf
     MD5 check sum: 1790becc920ee074925cf490c71280fe
     Pseudo is Norm-conserving, Zval =  1.0
     Generated using ONCVPSP code by D. R. Hamann
     Using radial grid of 1166 points,  2 beta functions with:
                l(1) =   0
                l(2) =   0

     atomic species   valence    mass     pseudopotential
        Mo            14.00    95.94000     Mo( 1.00)
        S              6.00    32.06500     S ( 1.00)
        H              1.00     1.00794     H ( 1.00)

     No symmetry found

   Cartesian axes

     site n.     atom                  positions (alat units)
         1           Mo  tau(   1) = (   0.6952221   0.1890506   0.2985846  )
         2           S   tau(   2) = (   0.8646417   0.0856217   0.4689279  )
         3           S   tau(   3) = (   0.8663890   0.0857843   0.1351291  )
         4           Mo  tau(   4) = (   0.8560186   0.4753274   0.2873942  )
         5           S   tau(   5) = (   0.6873294   0.3936244   0.4596353  )
         6           S   tau(   6) = (   0.6929804   0.3713468   0.1185692  )
         7           Mo  tau(   7) = (   0.6862796   0.7633098   0.2825370  )
         8           S   tau(   8) = (   0.8545980   0.6708292   0.4486168  )
         9           S   tau(   9) = (   0.8545123   0.6666874   0.1146125  )
        10           Mo  tau(  10) = (   0.8629403   1.0471007   0.3006803  )
        11           S   tau(  11) = (   0.6868280   0.9456650   0.4634891  )
        12           S   tau(  12) = (   0.6998113   0.9568511   0.1205389  )
        13           Mo  tau(  13) = (   0.3618216   0.1847309   0.2935964  )
        14           S   tau(  14) = (   0.5260962   0.0863870   0.4600448  )
        15           S   tau(  15) = (   0.5348379   0.0894875   0.1297123  )
        16           Mo  tau(  16) = (   0.5265817   0.4772436   0.2784130  )
        17           S   tau(  17) = (   0.3624753   0.3882513   0.4525556  )
        18           S   tau(  18) = (   0.3635411   0.3752055   0.1119148  )
        19           Mo  tau(  19) = (   0.3652268   0.7630864   0.2781795  )
        20           S   tau(  20) = (   0.5269494   0.6690381   0.1096838  )
        21           Mo  tau(  21) = (   0.5300192   1.0470394   0.2900995  )
        22           S   tau(  22) = (   0.3670346   0.9457522   0.4574073  )
        23           S   tau(  23) = (   0.3604225   0.9585725   0.1159032  )
        24           Mo  tau(  24) = (   0.0313099   0.1847895   0.3013130  )
        25           S   tau(  25) = (   0.1956761   0.0838230   0.4650863  )
        26           S   tau(  26) = (   0.1967693   0.0903508   0.1278874  )
        27           Mo  tau(  27) = (   0.1967578   0.4753919   0.2813011  )
        28           S   tau(  28) = (   0.0287851   0.3864324   0.4586755  )
        29           S   tau(  29) = (   0.0244514   0.3729871   0.1239344  )
        30           Mo  tau(  30) = (   0.0286728   0.7631204   0.2856894  )
        31           S   tau(  31) = (   0.2011512   0.6675435   0.4465001  )
        32           S   tau(  32) = (   0.1969214   0.6672839   0.1104564  )
        33           Mo  tau(  33) = (   0.1950294   1.0511147   0.2932237  )
        34           S   tau(  34) = (   0.0312912   0.9612169   0.4667423  )
        35           S   tau(  35) = (   0.0292670   0.9563028   0.1216485  )
        36           H   tau(  36) = (   0.4444444   0.2568157   0.5650415  )

     number of k points=     1  Gaussian smearing, width (Ry)=  0.0100
                       cart. coord. in units 2pi/alat
        k(    1) = (   0.0000000   0.0000000   0.0000000), wk =   2.0000000

     Initial potential from superposition of free atoms

     starting charge     306.9873, renormalised to     307.0000

     negative rho (up, down):  1.409E-04 0.000E+00

Carrying out rVV10 run using the following parameters:
Nqs =      20    Nr_points =    1024   r_max =   100.000
b_value =  6.30000    beta =  0.00901
     q_mesh =  0.00010000  0.00030000  0.00058939  0.00100810
               0.00161396  0.00249058  0.00375900  0.00559430
               0.00824984  0.01209221  0.01765183  0.02569619
               0.03733578  0.05417739  0.07854596  0.11380545
               0.16482331  0.23864234  0.34545298  0.50000000

Gradients computed in Reciprocal space

     Starting wfcs are  213 randomized atomic wfcs

     Self-consistent Calculation

     iteration #  1     ecut=    80.00 Ry     beta= 0.70
     Davidson diagonalization with overlap
     ethr =  1.00E-02,  avg # of iterations =  2.0

     Threshold (ethr) on eigenvalues was too large:
     Diagonalizing with lowered threshold

     Davidson diagonalization with overlap
     ethr =  3.60E-04,  avg # of iterations =  4.0

[...]

     total energy              =   -2205.58012457 Ry
     estimated scf accuracy    <       1.39403527 Ry

[...]

     End of self-consistent calculation

          k = 0.0000 0.0000 0.0000 (105382 PWs)   bands (ev):

   -62.8926 -62.8871 -62.8794 -62.8727 -62.8420 -62.8315 -62.8287 -62.8096
   -62.8018 -62.7960 -62.7502 -62.7130 -37.2410 -37.1679 -37.1584 -37.1550
   -37.1425 -37.1149 -37.0927 -37.0875 -37.0840 -37.0761 -37.0638 -37.0544
   -37.0510 -37.0383 -37.0260 -37.0240 -37.0139 -37.0122 -37.0093 -36.9812
   -36.9746 -36.9689 -36.9514 -36.9383 -36.9224 -36.9186 -36.9155 -36.9029
   -36.8992 -36.8857 -36.8752 -36.8553 -36.8429 -36.8111 -36.7325 -36.7126
   -16.0241 -15.2931 -15.1619 -15.0249 -14.9464 -14.8547 -14.6545 -14.4814
   -14.4552 -14.4332 -14.4118 -14.3747 -14.3336 -14.3114 -14.1940 -14.1413
   -14.1293 -14.1036 -14.0577 -13.9017 -13.8521 -13.8277 -13.8068  -8.0904
    -7.5844  -7.4230  -7.3025  -7.2879  -7.2242  -7.2050  -7.1757  -7.0213
    -6.8451  -6.7903  -6.7487  -6.7045  -6.5715  -6.5187  -6.4655  -6.4284
    -6.3039  -6.2473  -6.0920  -6.0097  -5.9336  -5.9085  -5.8507  -5.7952
    -5.7764  -5.7311  -5.7125  -5.6613  -5.6318  -5.5694  -5.5451  -5.4848
    -5.4301  -5.3814  -5.1835  -5.1366  -5.0776  -5.0372  -4.9899  -4.9853
    -4.9268  -4.8371  -4.6889  -4.5317  -4.3476  -4.3384  -4.3232  -4.2554
    -4.2055  -4.0475  -4.0300  -3.8732  -3.8472  -3.8183  -3.7593  -3.6951
    -3.6388  -3.6270  -3.5419  -3.5131  -3.4829  -3.4794  -3.4435  -3.4016
    -3.3750  -3.2056  -3.1400  -2.9273  -2.8865  -2.8208  -2.7765  -2.7586
    -2.7218  -2.6700  -2.6584  -2.6349  -2.5775  -2.3182  -2.0342  -1.9948
    -1.9264  -1.1356  -0.7766  -0.6928  -0.1881  -0.1508  -0.0897  -0.0368
     0.0302   0.1111   0.1449   0.2226   0.2569   0.2792   0.3840   0.4499
     0.4542   0.5174   0.5473   0.5674   0.6022   0.6751   0.7223   0.7446
     0.7466   0.7652   0.8505   0.8687   0.9250   0.9810   1.0346   1.1404
     1.4307

     the Fermi energy is    -1.1356 ev

!    total energy              =   -2205.51332906 Ry
     estimated scf accuracy    <       0.00000040 Ry
     smearing contrib. (-TS)   =      -0.00564738 Ry
     internal energy E=F+TS    =   -2205.50768169 Ry

     The total energy is F=E-TS. E is the sum of the following terms:
     one-electron contribution =  -18046.96266015 Ry
     hartree contribution      =    9010.15707925 Ry
     xc contribution           =    -385.22022895 Ry
     ewald contribution        =    7216.51812816 Ry

     convergence has been achieved in  14 iterations

[...]

     Forces acting on atoms (cartesian axes, Ry/au):

     atom    1 type  1   force =     0.01212897   -0.02587862    0.00717267
     atom    2 type  2   force =    -0.01406809    0.01701134    0.00044090
[...]
     atom    3 type  2   force =     0.01781491   -0.06050185  -37.61097769
     atom    4 type  1   force =    -0.11015258    0.43512725    0.11805808
     atom    5 type  2   force =    -0.21118539    1.14689818   38.25417525
     atom    6 type  2   force =     0.00548472   -0.24579775  -37.85187040
     atom    7 type  1   force =    -2.93030791   -1.69137230    3.33697000
     atom    8 type  2   force =    -1.06348677    0.22783936   38.22775319
     atom    9 type  2   force =     0.11635148    0.05261612  -37.85742262
     atom   10 type  1   force =    -0.56606671   -0.48068316    2.50125493
     atom   11 type  2   force =    -0.41571013   -1.39080401   38.50449303
     atom   12 type  2   force =     0.16115021    0.21139619  -37.78249498
     atom   13 type  1   force =    -0.30766471    1.28138711    3.18787790
     atom   14 type  2   force =     0.18759384   -0.59287822   38.35518424
     atom   15 type  2   force =    -0.01980678   -0.06800305  -37.43226767
     atom   16 type  1   force =    -0.93084933    3.92371106    4.57611761
     atom   17 type  2   force =    -0.97909717    2.30293435   38.05994017
     atom   18 type  2   force =     0.07664978   -0.37012103  -37.23704878
     atom   19 type  1   force =     3.20480871   -1.87201431    1.57733736
     atom   20 type  2   force =     0.02851999   -0.13479297  -38.10781346
     atom   21 type  1   force =     0.03407119   -0.60203413    1.17498196
     atom   22 type  2   force =     0.51446940   -1.50435872   38.44217107
     atom   23 type  2   force =    -0.03743485    0.31872759  -37.99772693
     atom   24 type  1   force =     0.04231039    0.46721329    1.67061161
     atom   25 type  2   force =    -0.08225740   -0.04875842   38.76311468
     atom   26 type  2   force =     0.04976639    0.00500307  -37.52032380
     atom   27 type  1   force =     1.35044635   -0.57895097   -1.43149707
     atom   28 type  2   force =     0.25573655    0.47437888   37.75473018
     atom   29 type  2   force =    -0.09173845   -0.29146707  -38.03016680
     atom   30 type  1   force =    -0.27645295   -0.41787607    1.86236132
     atom   31 type  2   force =     1.19044164   -0.01053702   38.23645467
     atom   32 type  2   force =    -0.20624331    0.15424529  -38.49542240
     atom   33 type  1   force =     0.40924820   -0.41204351    2.59234601
     atom   34 type  2   force =    -0.01328516   -0.47539309   38.78343587
     atom   35 type  2   force =    -0.04453806    0.22060372  -37.56152371
     atom   36 type  3   force =     0.62138121   -0.34979522    8.26272375
     The local contribution  to forces
     atom    1 type  1   force =    -0.03325537   -0.41748305   -1.96991682
     atom    2 type  2   force =     0.01501131    0.02969413  -38.45645706
     atom    3 type  2   force =    -0.01452410    0.06822670   37.36460686
     atom    4 type  1   force =     0.10261848   -0.44181375   -0.12626371
     atom    5 type  2   force =     0.20859950   -1.12299777  -38.03243409
     atom    6 type  2   force =    -0.01009817    0.24933059   37.60796521
     atom    7 type  1   force =     2.95339589    1.68763575   -3.31383834
     atom    8 type  2   force =     1.05928727   -0.23049720  -37.98367029
     atom    9 type  2   force =    -0.11321404   -0.03641395   37.61006403
     atom   10 type  1   force =     0.56344525    0.47734409   -2.50485463
     atom   11 type  2   force =     0.41189951    1.39214352  -38.26848472
     atom   12 type  2   force =    -0.15315056   -0.19949042   37.54063134
     atom   13 type  1   force =     0.30718414   -1.30452503   -3.17859341
     atom   14 type  2   force =    -0.19016334    0.60072895  -38.12528949
     atom   15 type  2   force =     0.02009876    0.07944091   37.18851840
     atom   16 type  1   force =     0.94176036   -3.96184508   -4.54243538
     atom   17 type  2   force =     0.78689432   -2.11614881  -38.04918363
     atom   18 type  2   force =    -0.07625301    0.37511745   36.98812055
     atom   19 type  1   force =    -3.21964822    1.87014297   -1.56128798
     atom   20 type  2   force =    -0.02771319    0.14190848   37.86534165
     atom   21 type  1   force =    -0.03608907    0.57924034   -1.17812287
     atom   22 type  2   force =    -0.50935854    1.50144189  -38.20447550
     atom   23 type  2   force =     0.03305787   -0.30479286   37.75561379
     atom   24 type  1   force =    -0.04018985   -0.47981047   -1.67144989
     atom   25 type  2   force =     0.07561384    0.05603003  -38.52369755
     atom   26 type  2   force =    -0.05014163    0.00704070   37.27518433
     atom   27 type  1   force =    -1.34723670    0.57555324    1.43211727
     atom   28 type  2   force =    -0.24453239   -0.45955147  -37.51333445
     atom   29 type  2   force =     0.08931151    0.29491428   37.78205048
     atom   30 type  1   force =     0.27493944    0.39928944   -1.86790724
     atom   31 type  2   force =    -1.17866037   -0.00585863  -38.00424503
     atom   32 type  2   force =     0.20173823   -0.14028502   38.25028307
     atom   33 type  1   force =    -0.40536941    0.40870345   -2.59438661
     atom   34 type  2   force =     0.01328790    0.48282848  -38.53240649
     atom   35 type  2   force =     0.04364985   -0.20866350   37.31725187
     atom   36 type  3   force =    -0.59213209    0.32575784   -8.22411636
     The core correction contribution to forces
     atom    1 type  1   force =     0.00000000    0.00000000    0.00000000
     atom    2 type  2   force =     0.00002286    0.00032407    0.02066203
     atom    3 type  2   force =     0.00016680    0.00029881   -0.02094788
     atom    4 type  1   force =     0.00000000    0.00000000    0.00000000
     atom    5 type  2   force =     0.00014213    0.00103561    0.01966027
     atom    6 type  2   force =    -0.00027300   -0.00008894   -0.02076770
     atom    7 type  1   force =     0.00000000    0.00000000    0.00000000
     atom    8 type  2   force =    -0.00016187    0.00019000    0.02073450
     atom    9 type  2   force =     0.00034912    0.00095136   -0.02089684
     atom   10 type  1   force =     0.00000000    0.00000000    0.00000000
     atom   11 type  2   force =     0.00011784   -0.00017139    0.02046371
     atom   12 type  2   force =     0.00069083    0.00074653   -0.02073803
     atom   13 type  1   force =     0.00000000    0.00000000    0.00000000
     atom   14 type  2   force =     0.00007188   -0.00015052    0.01978154
     atom   15 type  2   force =    -0.00003372    0.00056864   -0.02080108
     atom   16 type  1   force =     0.00000000    0.00000000    0.00000000
     atom   17 type  2   force =    -0.01355876    0.01240774    0.00294621
     atom   18 type  2   force =     0.00033051   -0.00019095   -0.02109693
     atom   19 type  1   force =     0.00000000    0.00000000    0.00000000
     atom   20 type  2   force =     0.00000132    0.00011356   -0.02110530
     atom   21 type  1   force =     0.00000000    0.00000000    0.00000000
     atom   22 type  2   force =     0.00006020   -0.00060986    0.02051589
     atom   23 type  2   force =    -0.00046011    0.00101238   -0.02076597
     atom   24 type  1   force =     0.00000000    0.00000000    0.00000000
     atom   25 type  2   force =    -0.00048708    0.00015158    0.02047778
     atom   26 type  2   force =     0.00010105    0.00057749   -0.02094504
     atom   27 type  1   force =     0.00000000    0.00000000    0.00000000
     atom   28 type  2   force =     0.00072971    0.00097901    0.02066659
     atom   29 type  2   force =    -0.00020487   -0.00009754   -0.02086591
     atom   30 type  1   force =     0.00000000    0.00000000    0.00000000
     atom   31 type  2   force =     0.00060344   -0.00055617    0.02030496
     atom   32 type  2   force =    -0.00056895    0.00104208   -0.02096302
     atom   33 type  1   force =     0.00000000    0.00000000    0.00000000
     atom   34 type  2   force =     0.00004028    0.00024586    0.02112424
     atom   35 type  2   force =     0.00000435    0.00074308   -0.02086909
     atom   36 type  3   force =     0.00000000    0.00000000    0.00000000
     The Hubbard contrib.    to forces
     atom    1 type  1   force =     0.00000000    0.00000000    0.00000000
     atom    2 type  2   force =     0.00000000    0.00000000    0.00000000
     atom    3 type  2   force =     0.00000000    0.00000000    0.00000000
     atom    4 type  1   force =     0.00000000    0.00000000    0.00000000
     atom    5 type  2   force =     0.00000000    0.00000000    0.00000000
     atom    6 type  2   force =     0.00000000    0.00000000    0.00000000
     atom    7 type  1   force =     0.00000000    0.00000000    0.00000000
     atom    8 type  2   force =     0.00000000    0.00000000    0.00000000
     atom    9 type  2   force =     0.00000000    0.00000000    0.00000000
     atom   10 type  1   force =     0.00000000    0.00000000    0.00000000
     atom   11 type  2   force =     0.00000000    0.00000000    0.00000000
     atom   12 type  2   force =     0.00000000    0.00000000    0.00000000
     atom   13 type  1   force =     0.00000000    0.00000000    0.00000000
     atom   14 type  2   force =     0.00000000    0.00000000    0.00000000
     atom   15 type  2   force =     0.00000000    0.00000000    0.00000000
     atom   16 type  1   force =     0.00000000    0.00000000    0.00000000
     atom   17 type  2   force =     0.00000000    0.00000000    0.00000000
     atom   18 type  2   force =     0.00000000    0.00000000    0.00000000
     atom   19 type  1   force =     0.00000000    0.00000000    0.00000000
     atom   20 type  2   force =     0.00000000    0.00000000    0.00000000
     atom   21 type  1   force =     0.00000000    0.00000000    0.00000000
     atom   22 type  2   force =     0.00000000    0.00000000    0.00000000
     atom   23 type  2   force =     0.00000000    0.00000000    0.00000000
     atom   24 type  1   force =     0.00000000    0.00000000    0.00000000
     atom   25 type  2   force =     0.00000000    0.00000000    0.00000000
     atom   26 type  2   force =     0.00000000    0.00000000    0.00000000
     atom   27 type  1   force =     0.00000000    0.00000000    0.00000000
     atom   28 type  2   force =     0.00000000    0.00000000    0.00000000
     atom   29 type  2   force =     0.00000000    0.00000000    0.00000000
     atom   30 type  1   force =     0.00000000    0.00000000    0.00000000
     atom   31 type  2   force =     0.00000000    0.00000000    0.00000000
     atom   32 type  2   force =     0.00000000    0.00000000    0.00000000
     atom   33 type  1   force =     0.00000000    0.00000000    0.00000000
     atom   34 type  2   force =     0.00000000    0.00000000    0.00000000
     atom   35 type  2   force =     0.00000000    0.00000000    0.00000000
     atom   36 type  3   force =     0.00000000    0.00000000    0.00000000
     The SCF correction term to forces
     atom    1 type  1   force =     0.00003860   -0.00001350   -0.00000255
     atom    2 type  2   force =     0.00000521   -0.00000362   -0.00000765
     atom    3 type  2   force =     0.00000316   -0.00001458    0.00000060
     atom    4 type  1   force =     0.00000974    0.00001750    0.00004002
     atom    5 type  2   force =     0.00000901    0.00001135    0.00002761
     atom    6 type  2   force =     0.00001265   -0.00000888   -0.00000522
     atom    7 type  1   force =     0.00000125    0.00000806    0.00002940
     atom    8 type  2   force =    -0.00000149    0.00000710    0.00002354
     atom    9 type  2   force =     0.00000173    0.00001657    0.00000190
     atom   10 type  1   force =     0.00000970   -0.00001411   -0.00001389
     atom   11 type  2   force =     0.00000924   -0.00001784    0.00000581
     atom   12 type  2   force =     0.00001056    0.00000441   -0.00000224
     atom   13 type  1   force =    -0.00001699   -0.00002353   -0.00000390
     atom   14 type  2   force =     0.00000969   -0.00000380    0.00001068
     atom   15 type  2   force =     0.00000931   -0.00000806   -0.00001301
     atom   16 type  1   force =     0.00000511    0.00004717    0.00004616
     atom   17 type  2   force =    -0.00000797    0.00002125    0.00005616
     atom   18 type  2   force =    -0.00000923    0.00000416   -0.00000543
     atom   19 type  1   force =    -0.00000890    0.00000492    0.00003515
     atom   20 type  2   force =    -0.00000030    0.00002295    0.00000963
     atom   21 type  1   force =     0.00001952   -0.00004323   -0.00000508
     atom   22 type  2   force =    -0.00000396   -0.00002581    0.00000681
     atom   23 type  2   force =    -0.00000439   -0.00001008   -0.00000098
     atom   24 type  1   force =    -0.00001900   -0.00000939    0.00000395
     atom   25 type  2   force =    -0.00001522    0.00000263    0.00000769
     atom   26 type  2   force =    -0.00001372   -0.00000757   -0.00000349
     atom   27 type  1   force =    -0.00002105    0.00003980    0.00003685
     atom   28 type  2   force =     0.00000292    0.00000928    0.00001727
     atom   29 type  2   force =    -0.00000372   -0.00000653    0.00000365
     atom   30 type  1   force =     0.00000505    0.00001161    0.00002562
     atom   31 type  2   force =     0.00000581    0.00000237    0.00001719
     atom   32 type  2   force =     0.00000084    0.00001570    0.00000753
     atom   33 type  1   force =    -0.00002988   -0.00004402   -0.00000889
     atom   34 type  2   force =    -0.00000516   -0.00001119    0.00000431
     atom   35 type  2   force =    -0.00000637    0.00000279   -0.00000423
     atom   36 type  3   force =    -0.00000267    0.00000468    0.00000295

     Total force =     0.005604     Total SCF correction =     0.000180
     Energy error            =      7.3E-05 Ry
     Gradient error          =      1.5E-03 Ry/Bohr

     bfgs converged in  24 scf cycles and  23 bfgs steps
     (criteria: energy <  1.0E-04 Ry, force <  1.0E-02 Ry/Bohr)

     End of BFGS Geometry Optimization

     Final energy             =   -2205.5822550222 Ry

     File ./MoS2-V-O.bfgs deleted, as requested
Begin final coordinates

ATOMIC_POSITIONS (angstrom)
Mo            6.5643912157        1.7369524136        2.7584678280
S             8.1427172933        0.8387369009        4.3596905768
S             8.1398842850        0.8308456749        1.1642431789
Mo            8.1319216142        4.4778290156        2.7093306265
S             6.5664356947        3.6369903301        4.3173405160
S             6.5384213612        3.5518849017        1.1312993699
Mo            6.4990921396        7.1647689244        2.6848509985
S             8.0781778746        6.2894356250        4.3018293246
S             8.1122492842        6.3171071318        1.1149145775
Mo            8.1325195580        9.9265721835        2.7607008595
S             6.5213093135        8.9346648869        4.3264037032
S             6.5743115728        9.0109697014        1.1313112196
Mo            3.4255842835        1.7400256791        2.7819150830
S             5.0015574096        0.7879997390        4.3493758020
S             4.9821932668        0.8320264102        1.1766273676
Mo            5.0110313790        4.5163778233        2.7189671167
S             3.5525648601        3.6090034233        4.4796798647
S             3.4460916334        3.5587900663        1.1563249952
Mo            3.4281090223        7.1709458230        2.6515347449
S             4.9767805472        6.2745460424        1.0756413771
Mo            4.9867349748        9.8891935986        2.7329819381
S             3.4519045768        8.9212324715        4.3207117409
S             3.3948235804        9.0259127927        1.1168578098
Mo            0.2735132355        1.7375307885        2.7538852756
S             1.8449339725        0.8333551002        4.3685637374
S             1.8595590491        0.8411077691        1.1730200248
Mo            1.8458994652        4.5211989009        2.6583655698
S             0.2930368442        3.6081600919        4.2866179881
S             0.2662376170        3.5497687032        1.1150428321
Mo            0.2505622127        7.2097580039        2.7305275149
S             1.8880295475        6.2936586433        4.2990987567
S             1.8142437692        6.3255376404        1.0816765114
Mo            1.8466504389        9.9296446932        2.7619514397
S             0.2602000965        9.0184561879        4.3524176910
S             0.2591138059        9.0429495012        1.1645177325
H             4.3145646612        2.9556532720        5.4536541784
End final coordinates

     Writing all to output data dir ./MoS2-V-O.save/

     General routines

     Parallel routines

   This run was terminated on:  23:39:54   3Nov2023

   JOB DONE.