     Program PWSCF v.7.2 starts on  3Nov2023 at 20:53: 1

     Waiting for input...
     Reading input from standard input
Warning: card &CELL ignored
Warning: card CELL_DYNAMICS = 'BFGS', ignored
Warning: card CELL_DOFREE = '2DXY' ignored
Warning: card / ignored

     Current dimensions of program PWSCF are:
     Max number of different atomic species (ntypx) = 10
     Max number of k-points (npk) =  40000
     Max angular momentum in pseudopotentials (lmaxx) =  4

     IMPORTANT: XC functional enforced from input :
     Exchange-correlation= RVV10
                           (   1   4  13   4  26   0   0)
     Any further DFT definition will be discarded
     Please, verify this is what you really want

     gamma-point specific algorithms are used
     signal trapping enabled: kill the code with -SIGUSR1 to stop cleanly the simulation

     R & G space division:  proc/nbgrp/npool/nimage =      48
     Subspace diagonalization in iterative solution of the eigenvalue problem:
     one sub-group per band group will be used

     Using Slab Decomposition

     bravais-lattice index     =            0
     lattice parameter (alat)  =      17.8707  a.u.
     unit-cell volume          =   17436.2743 (a.u.)^3
     number of atoms/cell      =           36
     number of atomic types    =            3
     number of electrons       =       307.00
     number of Kohn-Sham states=          185
     kinetic-energy cutoff     =      80.0000  Ry
     charge density cutoff     =     400.0000  Ry
     scf convergence threshold =      1.0E-06
     mixing beta               =       0.7000
     number of iterations used =            8  local-TF  mixing
     energy convergence thresh.=      1.0E-04
     force convergence thresh. =      1.0E-02
     Exchange-correlation= RVV10
                           (   1   4  13   4  26   0   0)
     nstep                     =          200

     celldm(1)=  17.870686  celldm(2)=   0.000000  celldm(3)=   0.000000
     celldm(4)=   0.000000  celldm(5)=   0.000000  celldm(6)=   0.000000

     crystal axes: (cart. coord. in units of alat)
               a(1) = (   1.000000   0.000000   0.000000 )
               a(2) = (   0.000000   1.155671   0.000000 )
               a(3) = (   0.000000   0.000000   2.643601 )

     reciprocal axes: (cart. coord. in units 2 pi/alat)
               b(1) = (  1.000000  0.000000  0.000000 )
               b(2) = (  0.000000  0.865298  0.000000 )
               b(3) = (  0.000000  0.000000  0.378272 )

     PseudoPot. # 1 for Mo read from file:
     ../pseudo/Mo_ONCV_PBE-1.0.oncvpsp.upf
     MD5 check sum: 1b5d28e075c9ccadda658a603575cd1f
     Pseudo is Norm-conserving, Zval = 14.0
     Generated using ONCVPSP code by D. R. Hamann
     Using radial grid of 1526 points,  6 beta functions with:
                l(1) =   0
                l(2) =   0
                l(3) =   1
                l(4) =   1
                l(5) =   2
                l(6) =   2

     PseudoPot. # 2 for S  read from file:
     ../pseudo/s_pbe_v1.4.uspp.F.UPF
     MD5 check sum: 88d86576ff6df21479756cfb9bdac1df
     Pseudo is Ultrasoft + core correction, Zval =  6.0
     Generated by new atomic code, or converted to UPF format
     Using radial grid of  907 points,  6 beta functions with:
                l(1) =   0
                l(2) =   0
                l(3) =   1
                l(4) =   1
                l(5) =   2
                l(6) =   2
     Q(r) pseudized with  8 coefficients,  rinner =    1.300   1.300   1.300
                                                       1.300   1.300

     PseudoPot. # 3 for H  read from file:
     ../pseudo/H_ONCV_PBE-1.0.oncvpsp.upf
     MD5 check sum: 1790becc920ee074925cf490c71280fe
     Pseudo is Norm-conserving, Zval =  1.0
     Generated using ONCVPSP code by D. R. Hamann
     Using radial grid of 1166 points,  2 beta functions with:
                l(1) =   0
                l(2) =   0

     atomic species   valence    mass     pseudopotential
        Mo            14.00    95.94000     Mo( 1.00)
        S              6.00    32.06500     S ( 1.00)
        H              1.00     1.00794     H ( 1.00)

     No symmetry found

   Cartesian axes

     site n.     atom                  positions (alat units)
         1           Mo  tau(   1) = (   0.6952221   0.1890506   0.2985846  )
         2           S   tau(   2) = (   0.8646417   0.0856217   0.4689279  )
         3           S   tau(   3) = (   0.8663890   0.0857843   0.1351291  )
         4           Mo  tau(   4) = (   0.8560186   0.4753274   0.2873942  )
         5           S   tau(   5) = (   0.6873294   0.3936244   0.4596353  )
         6           S   tau(   6) = (   0.6929804   0.3713468   0.1185692  )
         7           Mo  tau(   7) = (   0.6862796   0.7633098   0.2825370  )
         8           S   tau(   8) = (   0.8545980   0.6708292   0.4486168  )
         9           S   tau(   9) = (   0.8545123   0.6666874   0.1146125  )
        10           Mo  tau(  10) = (   0.8629403   1.0471007   0.3006803  )
        11           S   tau(  11) = (   0.6868280   0.9456650   0.4634891  )
        12           S   tau(  12) = (   0.6998113   0.9568511   0.1205389  )
        13           Mo  tau(  13) = (   0.3618216   0.1847309   0.2935964  )
        14           S   tau(  14) = (   0.5260962   0.0863870   0.4600448  )
        15           S   tau(  15) = (   0.5348379   0.0894875   0.1297123  )
        16           Mo  tau(  16) = (   0.5265817   0.4772436   0.2784130  )
        17           S   tau(  17) = (   0.3624753   0.3882513   0.4525556  )
        18           S   tau(  18) = (   0.3635411   0.3752055   0.1119148  )
        19           Mo  tau(  19) = (   0.3652268   0.7630864   0.2781795  )
        20           S   tau(  20) = (   0.5269494   0.6690381   0.1096838  )
        21           Mo  tau(  21) = (   0.5300192   1.0470394   0.2900995  )
        22           S   tau(  22) = (   0.3670346   0.9457522   0.4574073  )
        23           S   tau(  23) = (   0.3604225   0.9585725   0.1159032  )
        24           Mo  tau(  24) = (   0.0313099   0.1847895   0.3013130  )
        25           S   tau(  25) = (   0.1956761   0.0838230   0.4650863  )
        26           S   tau(  26) = (   0.1967693   0.0903508   0.1278874  )
        27           Mo  tau(  27) = (   0.1967578   0.4753919   0.2813011  )
        28           S   tau(  28) = (   0.0287851   0.3864324   0.4586755  )
        29           S   tau(  29) = (   0.0244514   0.3729871   0.1239344  )
        30           Mo  tau(  30) = (   0.0286728   0.7631204   0.2856894  )
        31           S   tau(  31) = (   0.2011512   0.6675435   0.4465001  )
        32           S   tau(  32) = (   0.1969214   0.6672839   0.1104564  )
        33           Mo  tau(  33) = (   0.1950294   1.0511147   0.2932237  )
        34           S   tau(  34) = (   0.0312912   0.9612169   0.4667423  )
        35           S   tau(  35) = (   0.0292670   0.9563028   0.1216485  )
        36           H   tau(  36) = (   0.1111111   0.1284079   0.5650415  )

     number of k points=     1  Gaussian smearing, width (Ry)=  0.0100
                       cart. coord. in units 2pi/alat
        k(    1) = (   0.0000000   0.0000000   0.0000000), wk =   2.0000000

     Initial potential from superposition of free atoms

     starting charge     306.9873, renormalised to     307.0000

     negative rho (up, down):  1.411E-04 0.000E+00

Carrying out rVV10 run using the following parameters:
Nqs =      20    Nr_points =    1024   r_max =   100.000
b_value =  6.30000    beta =  0.00901
     q_mesh =  0.00010000  0.00030000  0.00058939  0.00100810
               0.00161396  0.00249058  0.00375900  0.00559430
               0.00824984  0.01209221  0.01765183  0.02569619
               0.03733578  0.05417739  0.07854596  0.11380545
               0.16482331  0.23864234  0.34545298  0.50000000

Gradients computed in Reciprocal space

     Starting wfcs are  213 randomized atomic wfcs

     Self-consistent Calculation

     iteration #  1     ecut=    80.00 Ry     beta= 0.70
     Davidson diagonalization with overlap
     ethr =  1.00E-02,  avg # of iterations =  2.0

     Threshold (ethr) on eigenvalues was too large:
     Diagonalizing with lowered threshold

     Davidson diagonalization with overlap
     ethr =  3.90E-04,  avg # of iterations =  4.0

[...]

     total energy              =   -2205.61817558 Ry
     estimated scf accuracy    <       1.48360376 Ry

[...]

     iteration # 12     ecut=    80.00 Ry     beta= 0.70
     Davidson diagonalization with overlap
     c_bands:  1 eigenvalues not converged
     ethr =  1.54E-07,  avg # of iterations = 20.0

[...]

     End of self-consistent calculation

          k = 0.0000 0.0000 0.0000 (105382 PWs)   bands (ev):

   -62.8776 -62.8445 -62.8209 -62.8135 -62.8047 -62.7938 -62.7854 -62.7633
   -62.7351 -62.5753 -62.5590 -62.5157 -37.1934 -37.1460 -37.1172 -37.0934
   -37.0893 -37.0766 -37.0697 -37.0492 -37.0258 -37.0089 -37.0067 -36.9962
   -36.9872 -36.9769 -36.9735 -36.9694 -36.9627 -36.9502 -36.9446 -36.9387
   -36.9025 -36.8937 -36.8758 -36.8525 -36.8403 -36.8097 -36.8002 -36.7949
   -36.7584 -36.7459 -36.7221 -36.7140 -36.7003 -36.6557 -36.5380 -36.5305
   -16.6404 -15.7239 -15.1181 -15.0202 -14.8719 -14.7809 -14.6629 -14.4334
   -14.3984 -14.3627 -14.3220 -14.3095 -14.2870 -14.2128 -14.1186 -14.0735
   -14.0453 -14.0357 -13.9524 -13.9049 -13.7586 -13.7445 -13.7211  -9.4080
    -7.6522  -7.4526  -7.3250  -7.2286  -7.1974  -7.1381  -7.0961  -7.0140
    -6.7968  -6.7544  -6.7089  -6.6346  -6.5671  -6.4623  -6.4269  -6.4018
    -6.2792  -6.2598  -6.1941  -5.9073  -5.8954  -5.8494  -5.7548  -5.7377
    -5.7207  -5.6634  -5.6013  -5.5861  -5.5508  -5.4841  -5.4719  -5.4658
    -5.3930  -5.3095  -5.2012  -5.1376  -5.0063  -4.9597  -4.9358  -4.8985
    -4.8789  -4.7613  -4.6148  -4.5026  -4.4458  -4.3112  -4.2238  -4.1825
    -4.1045  -3.9919  -3.9635  -3.8550  -3.7498  -3.7457  -3.6974  -3.6583
    -3.6322  -3.5234  -3.5061  -3.4804  -3.4509  -3.4086  -3.3826  -3.3291
    -3.3082  -3.1506  -3.0955  -2.8724  -2.8475  -2.7579  -2.7097  -2.6957
    -2.6648  -2.6072  -2.6042  -2.5369  -2.4591  -2.1915  -1.9561  -1.9349
    -1.8504  -0.7137  -0.5849  -0.4454  -0.1291  -0.0934  -0.0658  -0.0008
     0.0335   0.1630   0.2523   0.2634   0.2904   0.3196   0.3990   0.5223
     0.5558   0.6066   0.6167   0.6536   0.6933   0.7170   0.7672   0.7870
     0.8326   0.8738   0.8909   0.9481   0.9828   1.0207   1.0935   1.4043
     1.4220

     the Fermi energy is    -0.7300 ev

!    total energy              =   -2205.53833662 Ry
     estimated scf accuracy    <       0.00000070 Ry
     smearing contrib. (-TS)   =      -0.00744079 Ry
     internal energy E=F+TS    =   -2205.53089583 Ry

     The total energy is F=E-TS. E is the sum of the following terms:
     one-electron contribution =  -18050.59555127 Ry
     hartree contribution      =    9012.61336106 Ry
     xc contribution           =    -385.40862368 Ry
     ewald contribution        =    7217.85991805 Ry

     convergence has been achieved in  16 iterations

[...]

     Forces acting on atoms (cartesian axes, Ry/au):

[...]
     atom    3 type  2   force =     0.23113668   -0.21742339  -37.66787486
     atom    4 type  1   force =    -0.55592534    1.15685068    0.99954281
     atom    5 type  2   force =    -0.88267150    1.43088174   38.17851615
     atom    6 type  2   force =     0.22021771   -0.15738989  -38.10885927
     atom    7 type  1   force =    -2.21944367   -2.82809712    2.04027489
     atom    8 type  2   force =    -1.37291844    0.09417673   38.04148495
     atom    9 type  2   force =     0.24184846    0.02911251  -37.64673941
     atom   10 type  1   force =    -0.04943886   -0.52279088    3.01650718
     atom   11 type  2   force =    -0.34566607   -1.48880068   38.73010848
     atom   12 type  2   force =     0.26499545    0.30957759  -38.11204572
     atom   13 type  1   force =    -0.44198393    0.21906136    2.49287631
     atom   14 type  2   force =    -0.02788732   -0.12063899   38.69907065
     atom   15 type  2   force =    -0.18020611   -0.21541055  -37.80842737
     atom   16 type  1   force =     0.49373546    4.12170350    0.10179176
     atom   17 type  2   force =     0.85744160    1.37957797   38.53556529
     atom   18 type  2   force =    -0.41326128   -0.29265243  -38.38207506
     atom   19 type  1   force =     2.19313574   -2.43703645    3.41725193
     atom   20 type  2   force =     0.02718742   -0.05357591  -38.66143271
     atom   21 type  1   force =    -0.40049208   -0.22023648    0.85174971
     atom   22 type  2   force =     0.46272656   -1.40698898   38.82832153
     atom   23 type  2   force =    -0.31634336    0.35355663  -37.89333585
     atom   24 type  1   force =     0.54234151   -0.02822130    2.11063564
     atom   25 type  2   force =     0.29990999   -0.03042366   35.84748377
     atom   26 type  2   force =    -0.07415164   -0.20875284  -36.68830755
     atom   27 type  1   force =     0.20531219    0.82799182    0.83842761
     atom   28 type  2   force =     0.01409963    0.67413350   38.47509228
     atom   29 type  2   force =     0.12405710   -0.03748027  -37.86791726
     atom   30 type  1   force =     0.09329620   -0.93003308    2.27380554
     atom   31 type  2   force =     1.15848172    0.16503886   38.03076530
     atom   32 type  2   force =    -0.22758301    0.13140816  -37.43385714
     atom   33 type  1   force =     0.44882717   -0.12593033    3.41866412
     atom   34 type  2   force =    -0.09922362   -0.50967577   38.97986670
     atom   35 type  2   force =     0.05198372    0.22564320  -37.45688570
     atom   36 type  3   force =    -0.04314280    0.05310494    8.72601991
     The local contribution  to forces
     atom    1 type  1   force =     0.05961822   -0.73465819   -2.13242147
     atom    2 type  2   force =     0.21269156    0.05005781  -38.71758791
     atom    3 type  2   force =    -0.22821121    0.22523588   37.42273373
     atom    4 type  1   force =     0.56060576   -1.17289027   -1.00323785
     atom    5 type  2   force =     0.87395745   -1.40575006  -37.94616233
     atom    6 type  2   force =    -0.21735723    0.16456423   37.86549695
     atom    7 type  1   force =     2.24854670    2.84388365   -2.02850990
     atom    8 type  2   force =     1.36257049   -0.09338419  -37.79815333
     atom    9 type  2   force =    -0.23783063   -0.01469039   37.39822064
     atom   10 type  1   force =     0.05214715    0.52306526   -3.02042431
     atom   11 type  2   force =     0.33870830    1.48075795  -38.49270844
     atom   12 type  2   force =    -0.25813173   -0.30402987   37.87013889
     atom   13 type  1   force =     0.42858289   -0.24941596   -2.47914042
     atom   14 type  2   force =     0.03424549    0.12377869  -38.46444452
     atom   15 type  2   force =     0.17861969    0.21889350   37.56911695
     atom   16 type  1   force =    -0.50109963   -4.17929717   -0.08578846
     atom   17 type  2   force =    -0.84866937   -1.34731050  -38.30868430
     atom   18 type  2   force =     0.41117761    0.29942087   38.14181358
     atom   19 type  1   force =    -2.23528045    2.45710479   -3.39330862
     atom   20 type  2   force =    -0.02790798    0.06768651   38.42151971
     atom   21 type  1   force =     0.39631337    0.20881987   -0.85489287
     atom   22 type  2   force =    -0.45178610    1.39954243  -38.59476640
     atom   23 type  2   force =     0.30757949   -0.34411563   37.65043806
     atom   24 type  1   force =    -0.52689351    0.00304900   -2.09907326
     atom   25 type  2   force =    -0.27841918    0.01701965  -36.10482009
     atom   26 type  2   force =     0.07226844    0.22008146   36.42233431
     atom   27 type  1   force =    -0.20783660   -0.84170175   -0.84208621
     atom   28 type  2   force =    -0.01544517   -0.64939645  -38.23604601
     atom   29 type  2   force =    -0.12338850    0.04922651   37.62380739
     atom   30 type  1   force =    -0.08745745    0.92049991   -2.27682806
     atom   31 type  2   force =    -1.15260294   -0.16450975  -37.78611633
     atom   32 type  2   force =     0.22457235   -0.11081289   37.18455947
     atom   33 type  1   force =    -0.44776026    0.14366849   -3.40684740
     atom   34 type  2   force =     0.09235070    0.50990184  -38.73725459
     atom   35 type  2   force =    -0.05325968   -0.21325608   37.21058587
     atom   36 type  3   force =     0.03981249   -0.04952016   -8.66138075
     The core correction contribution to forces
     atom    1 type  1   force =     0.00000000    0.00000000    0.00000000
     atom    2 type  2   force =    -0.00073479    0.00027080    0.02026820
     atom    3 type  2   force =     0.00015358    0.00021358   -0.02098935
     atom    4 type  1   force =     0.00000000    0.00000000    0.00000000
     atom    5 type  2   force =    -0.00085931    0.00146503    0.02017244
     atom    6 type  2   force =     0.00022858    0.00002461   -0.02071732
     atom    7 type  1   force =     0.00000000    0.00000000    0.00000000
     atom    8 type  2   force =    -0.00080345    0.00023935    0.02059809
     atom    9 type  2   force =     0.00024312    0.00074623   -0.02079811
     atom   10 type  1   force =     0.00000000    0.00000000    0.00000000
     atom   11 type  2   force =    -0.00024479   -0.00076822    0.02040650
     atom   12 type  2   force =     0.00063075    0.00059921   -0.02075371
     atom   13 type  1   force =     0.00000000    0.00000000    0.00000000
     atom   14 type  2   force =     0.00063781   -0.00024787    0.02028741
     atom   15 type  2   force =    -0.00003342    0.00010049   -0.02066205
     atom   16 type  1   force =     0.00000000    0.00000000    0.00000000
     atom   17 type  2   force =     0.00087383    0.00213543    0.01989707
     atom   18 type  2   force =    -0.00040743    0.00007500   -0.02081734
     atom   19 type  1   force =     0.00000000    0.00000000    0.00000000
     atom   20 type  2   force =     0.00004181    0.00055852   -0.02105849
     atom   21 type  1   force =     0.00000000    0.00000000    0.00000000
     atom   22 type  2   force =     0.00070324   -0.00080425    0.02019524
     atom   23 type  2   force =    -0.00057687    0.00064436   -0.02085269
     atom   24 type  1   force =     0.00000000    0.00000000    0.00000000
     atom   25 type  2   force =     0.00140257   -0.00083054   -0.01096132
     atom   26 type  2   force =    -0.00007862    0.00038142   -0.02157518
     atom   27 type  1   force =     0.00000000    0.00000000    0.00000000
     atom   28 type  2   force =    -0.00019907    0.00182909    0.02040476
     atom   29 type  2   force =     0.00003247    0.00058000   -0.02082167
     atom   30 type  1   force =     0.00000000    0.00000000    0.00000000
     atom   31 type  2   force =     0.00040075    0.00033909    0.02053484
     atom   32 type  2   force =    -0.00024905    0.00116685   -0.02069872
     atom   33 type  1   force =     0.00000000    0.00000000    0.00000000
     atom   34 type  2   force =    -0.00063376   -0.00038918    0.02063311
     atom   35 type  2   force =    -0.00019013    0.00078650   -0.02106302
     atom   36 type  3   force =     0.00000000    0.00000000    0.00000000
     The Hubbard contrib.    to forces
     atom    1 type  1   force =     0.00000000    0.00000000    0.00000000
     atom    2 type  2   force =     0.00000000    0.00000000    0.00000000
     atom    3 type  2   force =     0.00000000    0.00000000    0.00000000
     atom    4 type  1   force =     0.00000000    0.00000000    0.00000000
     atom    5 type  2   force =     0.00000000    0.00000000    0.00000000
     atom    6 type  2   force =     0.00000000    0.00000000    0.00000000
     atom    7 type  1   force =     0.00000000    0.00000000    0.00000000
     atom    8 type  2   force =     0.00000000    0.00000000    0.00000000
     atom    9 type  2   force =     0.00000000    0.00000000    0.00000000
     atom   10 type  1   force =     0.00000000    0.00000000    0.00000000
     atom   11 type  2   force =     0.00000000    0.00000000    0.00000000
     atom   12 type  2   force =     0.00000000    0.00000000    0.00000000
     atom   13 type  1   force =     0.00000000    0.00000000    0.00000000
     atom   14 type  2   force =     0.00000000    0.00000000    0.00000000
     atom   15 type  2   force =     0.00000000    0.00000000    0.00000000
     atom   16 type  1   force =     0.00000000    0.00000000    0.00000000
     atom   17 type  2   force =     0.00000000    0.00000000    0.00000000
     atom   18 type  2   force =     0.00000000    0.00000000    0.00000000
     atom   19 type  1   force =     0.00000000    0.00000000    0.00000000
     atom   20 type  2   force =     0.00000000    0.00000000    0.00000000
     atom   21 type  1   force =     0.00000000    0.00000000    0.00000000
     atom   22 type  2   force =     0.00000000    0.00000000    0.00000000
     atom   23 type  2   force =     0.00000000    0.00000000    0.00000000
     atom   24 type  1   force =     0.00000000    0.00000000    0.00000000
     atom   25 type  2   force =     0.00000000    0.00000000    0.00000000
     atom   26 type  2   force =     0.00000000    0.00000000    0.00000000
     atom   27 type  1   force =     0.00000000    0.00000000    0.00000000
     atom   28 type  2   force =     0.00000000    0.00000000    0.00000000
     atom   29 type  2   force =     0.00000000    0.00000000    0.00000000
     atom   30 type  1   force =     0.00000000    0.00000000    0.00000000
     atom   31 type  2   force =     0.00000000    0.00000000    0.00000000
     atom   32 type  2   force =     0.00000000    0.00000000    0.00000000
     atom   33 type  1   force =     0.00000000    0.00000000    0.00000000
     atom   34 type  2   force =     0.00000000    0.00000000    0.00000000
     atom   35 type  2   force =     0.00000000    0.00000000    0.00000000
     atom   36 type  3   force =     0.00000000    0.00000000    0.00000000
     The SCF correction term to forces
     atom    1 type  1   force =    -0.00002897    0.00002683    0.00001991
     atom    2 type  2   force =     0.00001438    0.00001098    0.00001254
     atom    3 type  2   force =     0.00001663    0.00001966    0.00000340
     atom    4 type  1   force =     0.00000773   -0.00005045    0.00001209
     atom    5 type  2   force =    -0.00000167   -0.00001544    0.00000630
     atom    6 type  2   force =     0.00000009   -0.00001024    0.00000330
     atom    7 type  1   force =    -0.00004020   -0.00001649    0.00003580
     atom    8 type  2   force =     0.00000529   -0.00001131    0.00001615
     atom    9 type  2   force =     0.00000396   -0.00001834   -0.00001164
     atom   10 type  1   force =     0.00003455    0.00004259    0.00001990
     atom   11 type  2   force =    -0.00001874    0.00000648    0.00003675
     atom   12 type  2   force =    -0.00000148    0.00000937   -0.00001735
     atom   13 type  1   force =    -0.00001701    0.00002030    0.00002225
     atom   14 type  2   force =    -0.00000599    0.00000391    0.00002082
     atom   15 type  2   force =    -0.00000258    0.00002216    0.00000358
     atom   16 type  1   force =    -0.00000812   -0.00002043    0.00001099
     atom   17 type  2   force =    -0.00000214   -0.00001938    0.00001281
     atom   18 type  2   force =     0.00000056   -0.00000965    0.00000534
     atom   19 type  1   force =     0.00001031    0.00000830    0.00004523
     atom   20 type  2   force =    -0.00000881   -0.00000964    0.00001017
     atom   21 type  1   force =    -0.00004802    0.00000559    0.00004898
     atom   22 type  2   force =     0.00000734   -0.00000466    0.00002099
     atom   23 type  2   force =     0.00000307   -0.00000187    0.00001185
     atom   24 type  1   force =     0.00000464   -0.00000262    0.00003450
     atom   25 type  2   force =    -0.00002226    0.00000538    0.00001081
     atom   26 type  2   force =     0.00000112    0.00001343    0.00000356
     atom   27 type  1   force =    -0.00000677   -0.00003716    0.00000924
     atom   28 type  2   force =     0.00000928   -0.00001846    0.00001149
     atom   29 type  2   force =     0.00000002   -0.00000905    0.00000350
     atom   30 type  1   force =     0.00002916   -0.00000649    0.00002681
     atom   31 type  2   force =     0.00001199    0.00000315    0.00002542
     atom   32 type  2   force =     0.00000178   -0.00000392   -0.00000210
     atom   33 type  1   force =     0.00000270    0.00003149    0.00005345
     atom   34 type  2   force =     0.00001185    0.00001635    0.00001929
     atom   35 type  2   force =     0.00000312    0.00000766   -0.00000285
     atom   36 type  3   force =    -0.00000118    0.00000032    0.00000100

     Total force =     0.005914     Total SCF correction =     0.000196
     Energy error            =      8.9E-05 Ry
     Gradient error          =      1.8E-03 Ry/Bohr

     bfgs converged in  28 scf cycles and  27 bfgs steps
     (criteria: energy <  1.0E-04 Ry, force <  1.0E-02 Ry/Bohr)

     End of BFGS Geometry Optimization

     Final energy             =   -2205.5908905516 Ry

     File ./MoS2-V-O.bfgs deleted, as requested
Begin final coordinates

ATOMIC_POSITIONS (angstrom)
Mo            6.5459348629        1.7652182803        2.7513034782
S             8.1064030815        0.8681431537        4.3711921974
S             8.1278987101        0.8516990239        1.1686599574
Mo            8.1046457996        4.4979910548        2.7177235524
S             6.4856536706        3.6807936728        4.2927896113
S             6.5543784333        3.5700209580        1.1039430799
Mo            6.4832241385        7.2418555085        2.6578555158
S             8.0347893394        6.3223125464        4.2954859508
S             8.1185081421        6.3287892505        1.1209890097
Mo            8.1241871604        9.9525326424        2.7711608925
S             6.4948886856        8.9824679639        4.3342126057
S             6.5760010126        9.0681831053        1.1187928905
Mo            3.4425978447        1.7917607036        2.7624620945
S             4.9938026620        0.8391606763        4.3439653251
S             4.9803803351        0.8567909488        1.1523749314
Mo            4.9583756010        4.5275853923        2.6250951109
S             3.4590513562        3.7008688668        4.3165532690
S             3.3970989914        3.5665670009        1.0955611668
Mo            3.4858039038        7.1969378654        2.6841837910
S             4.9823159274        6.3255905630        1.0344666250
Mo            4.9758274121        9.9347352858        2.7275424277
S             3.4795282097        8.9412628602        4.3508421640
S             3.3828169994        9.0287338762        1.1309318975
Mo            0.2157722743        1.7786559885        2.7701241430
S             1.8347503663        0.8540234187        4.2721893179
S             1.8313195255        0.8394288280        1.2141839298
Mo            1.8378525651        4.4829375828        2.7183080729
S             0.2325304601        3.6338833326        4.3300741809
S             0.2375961112        3.5738414514        1.1376913183
Mo            0.2378483017        7.2180448970        2.7438536217
S             1.8931764003        6.3077196478        4.2996341788
S             1.8321631266        6.3237056732        1.1346285234
Mo            1.8363081542        9.8942959294        2.7852215184
S             0.2348327071        9.0091788790        4.3724614518
S             0.2501280531        9.0434477756        1.1769456073
H             1.7547077981        0.8961040290        5.6369364631
End final coordinates

     Writing all to output data dir ./MoS2-V-O.save/

     General routines

     Parallel routines

   This run was terminated on:  20:42: 4   5Nov2023

   JOB DONE.