     Program PWSCF v.7.2 starts on  4Nov2023 at 11:36:57

     Waiting for input...
     Reading input from standard input
Warning: card &CELL ignored
Warning: card CELL_DYNAMICS = 'BFGS', ignored
Warning: card CELL_DOFREE = '2DXY' ignored
Warning: card / ignored

     Current dimensions of program PWSCF are:
     Max number of different atomic species (ntypx) = 10
     Max number of k-points (npk) =  40000
     Max angular momentum in pseudopotentials (lmaxx) =  4

     IMPORTANT: XC functional enforced from input :
     Exchange-correlation= RVV10
                           (   1   4  13   4  26   0   0)
     Any further DFT definition will be discarded
     Please, verify this is what you really want

     gamma-point specific algorithms are used
     signal trapping enabled: kill the code with -SIGUSR1 to stop cleanly the simulation

     R & G space division:  proc/nbgrp/npool/nimage =      48
     Subspace diagonalization in iterative solution of the eigenvalue problem:
     one sub-group per band group will be used

     Using Slab Decomposition

     bravais-lattice index     =            0
     lattice parameter (alat)  =      17.8707  a.u.
     unit-cell volume          =   17436.2743 (a.u.)^3
     number of atoms/cell      =           36
     number of atomic types    =            3
     number of electrons       =       307.00
     number of Kohn-Sham states=          185
     kinetic-energy cutoff     =      80.0000  Ry
     charge density cutoff     =     400.0000  Ry
     scf convergence threshold =      1.0E-06
     mixing beta               =       0.7000
     number of iterations used =            8  local-TF  mixing
     energy convergence thresh.=      1.0E-04
     force convergence thresh. =      1.0E-02
     Exchange-correlation= RVV10
                           (   1   4  13   4  26   0   0)
     nstep                     =          200

     celldm(1)=  17.870686  celldm(2)=   0.000000  celldm(3)=   0.000000
     celldm(4)=   0.000000  celldm(5)=   0.000000  celldm(6)=   0.000000

     crystal axes: (cart. coord. in units of alat)
               a(1) = (   1.000000   0.000000   0.000000 )
               a(2) = (   0.000000   1.155671   0.000000 )
               a(3) = (   0.000000   0.000000   2.643601 )

     reciprocal axes: (cart. coord. in units 2 pi/alat)
               b(1) = (  1.000000  0.000000  0.000000 )
               b(2) = (  0.000000  0.865298  0.000000 )
               b(3) = (  0.000000  0.000000  0.378272 )

     PseudoPot. # 1 for Mo read from file:
     ../pseudo/Mo_ONCV_PBE-1.0.oncvpsp.upf
     MD5 check sum: 1b5d28e075c9ccadda658a603575cd1f
     Pseudo is Norm-conserving, Zval = 14.0
     Generated using ONCVPSP code by D. R. Hamann
     Using radial grid of 1526 points,  6 beta functions with:
                l(1) =   0
                l(2) =   0
                l(3) =   1
                l(4) =   1
                l(5) =   2
                l(6) =   2

     PseudoPot. # 2 for S  read from file:
     ../pseudo/s_pbe_v1.4.uspp.F.UPF
     MD5 check sum: 88d86576ff6df21479756cfb9bdac1df
     Pseudo is Ultrasoft + core correction, Zval =  6.0
     Generated by new atomic code, or converted to UPF format
     Using radial grid of  907 points,  6 beta functions with:
                l(1) =   0
                l(2) =   0
                l(3) =   1
                l(4) =   1
                l(5) =   2
                l(6) =   2
     Q(r) pseudized with  8 coefficients,  rinner =    1.300   1.300   1.300
                                                       1.300   1.300

     PseudoPot. # 3 for H  read from file:
     ../pseudo/H_ONCV_PBE-1.0.oncvpsp.upf
     MD5 check sum: 1790becc920ee074925cf490c71280fe
     Pseudo is Norm-conserving, Zval =  1.0
     Generated using ONCVPSP code by D. R. Hamann
     Using radial grid of 1166 points,  2 beta functions with:
                l(1) =   0
                l(2) =   0

     atomic species   valence    mass     pseudopotential
        Mo            14.00    95.94000     Mo( 1.00)
        S              6.00    32.06500     S ( 1.00)
        H              1.00     1.00794     H ( 1.00)

     No symmetry found

   Cartesian axes

     site n.     atom                  positions (alat units)
         1           Mo  tau(   1) = (   0.6952221   0.1890506   0.2985846  )
         2           S   tau(   2) = (   0.8646417   0.0856217   0.4689279  )
         3           S   tau(   3) = (   0.8663890   0.0857843   0.1351291  )
         4           Mo  tau(   4) = (   0.8560186   0.4753274   0.2873942  )
         5           S   tau(   5) = (   0.6873294   0.3936244   0.4596353  )
         6           S   tau(   6) = (   0.6929804   0.3713468   0.1185692  )
         7           Mo  tau(   7) = (   0.6862796   0.7633098   0.2825370  )
         8           S   tau(   8) = (   0.8545980   0.6708292   0.4486168  )
         9           S   tau(   9) = (   0.8545123   0.6666874   0.1146125  )
        10           Mo  tau(  10) = (   0.8629403   1.0471007   0.3006803  )
        11           S   tau(  11) = (   0.6868280   0.9456650   0.4634891  )
        12           S   tau(  12) = (   0.6998113   0.9568511   0.1205389  )
        13           Mo  tau(  13) = (   0.3618216   0.1847309   0.2935964  )
        14           S   tau(  14) = (   0.5260962   0.0863870   0.4600448  )
        15           S   tau(  15) = (   0.5348379   0.0894875   0.1297123  )
        16           Mo  tau(  16) = (   0.5265817   0.4772436   0.2784130  )
        17           S   tau(  17) = (   0.3624753   0.3882513   0.4525556  )
        18           S   tau(  18) = (   0.3635411   0.3752055   0.1119148  )
        19           Mo  tau(  19) = (   0.3652268   0.7630864   0.2781795  )
        20           S   tau(  20) = (   0.5269494   0.6690381   0.1096838  )
        21           Mo  tau(  21) = (   0.5300192   1.0470394   0.2900995  )
        22           S   tau(  22) = (   0.3670346   0.9457522   0.4574073  )
        23           S   tau(  23) = (   0.3604225   0.9585725   0.1159032  )
        24           Mo  tau(  24) = (   0.0313099   0.1847895   0.3013130  )
        25           S   tau(  25) = (   0.1956761   0.0838230   0.4650863  )
        26           S   tau(  26) = (   0.1967693   0.0903508   0.1278874  )
        27           Mo  tau(  27) = (   0.1967578   0.4753919   0.2813011  )
        28           S   tau(  28) = (   0.0287851   0.3864324   0.4586755  )
        29           S   tau(  29) = (   0.0244514   0.3729871   0.1239344  )
        30           Mo  tau(  30) = (   0.0286728   0.7631204   0.2856894  )
        31           S   tau(  31) = (   0.2011512   0.6675435   0.4465001  )
        32           S   tau(  32) = (   0.1969214   0.6672839   0.1104564  )
        33           Mo  tau(  33) = (   0.1950294   1.0511147   0.2932237  )
        34           S   tau(  34) = (   0.0312912   0.9612169   0.4667423  )
        35           S   tau(  35) = (   0.0292670   0.9563028   0.1216485  )
        36           H   tau(  36) = (   0.7777778   1.1556707   0.5656742  )

     number of k points=     1  Gaussian smearing, width (Ry)=  0.0100
                       cart. coord. in units 2pi/alat
        k(    1) = (   0.0000000   0.0000000   0.0000000), wk =   2.0000000

     Initial potential from superposition of free atoms

     starting charge     306.9873, renormalised to     307.0000

     negative rho (up, down):  1.412E-04 0.000E+00

Carrying out rVV10 run using the following parameters:
Nqs =      20    Nr_points =    1024   r_max =   100.000
b_value =  6.30000    beta =  0.00901
     q_mesh =  0.00010000  0.00030000  0.00058939  0.00100810
               0.00161396  0.00249058  0.00375900  0.00559430
               0.00824984  0.01209221  0.01765183  0.02569619
               0.03733578  0.05417739  0.07854596  0.11380545
               0.16482331  0.23864234  0.34545298  0.50000000

Gradients computed in Reciprocal space

     Starting wfcs are  213 randomized atomic wfcs

     Self-consistent Calculation

     iteration #  1     ecut=    80.00 Ry     beta= 0.70
     Davidson diagonalization with overlap
     ethr =  1.00E-02,  avg # of iterations =  2.0

     Threshold (ethr) on eigenvalues was too large:
     Diagonalizing with lowered threshold

     Davidson diagonalization with overlap
     ethr =  3.90E-04,  avg # of iterations =  4.0

[...]

     total energy              =   -2205.60869671 Ry
     estimated scf accuracy    <       1.48925771 Ry

[...]

     iteration #  5     ecut=    80.00 Ry     beta= 0.70
     Davidson diagonalization with overlap
     c_bands:  1 eigenvalues not converged
     ethr =  1.17E-05,  avg # of iterations = 20.0

[...]

     iteration # 12     ecut=    80.00 Ry     beta= 0.70
     Davidson diagonalization with overlap
     c_bands:  1 eigenvalues not converged
     ethr =  9.92E-08,  avg # of iterations = 20.0

[...]

     End of self-consistent calculation

          k = 0.0000 0.0000 0.0000 (105382 PWs)   bands (ev):

   -62.8484 -62.8428 -62.8285 -62.8211 -62.8125 -62.8049 -62.8021 -62.7903
   -62.7682 -62.6950 -62.6751 -62.6694 -37.1907 -37.1239 -37.1120 -37.1106
   -37.1012 -37.0839 -37.0547 -37.0474 -37.0412 -37.0349 -37.0206 -37.0158
   -37.0092 -37.0028 -36.9961 -36.9915 -36.9833 -36.9796 -36.9729 -36.9677
   -36.9280 -36.9135 -36.9017 -36.8858 -36.8723 -36.8580 -36.8518 -36.8422
   -36.8394 -36.8323 -36.8278 -36.8141 -36.8063 -36.7788 -36.6708 -36.6358
   -16.1211 -15.5236 -15.1481 -15.0409 -14.9267 -14.8276 -14.6638 -14.4647
   -14.4342 -14.4077 -14.3690 -14.3424 -14.3150 -14.2571 -14.1539 -14.1158
   -14.0852 -14.0679 -13.9974 -13.9131 -13.8102 -13.7997 -13.7675  -8.6390
    -7.6070  -7.4249  -7.2931  -7.2469  -7.2320  -7.1539  -7.1296  -7.0243
    -6.8171  -6.7702  -6.7446  -6.6815  -6.5782  -6.4997  -6.4591  -6.4071
    -6.3329  -6.2709  -6.0839  -5.9524  -5.9278  -5.8649  -5.8117  -5.7723
    -5.7505  -5.7004  -5.6475  -5.6285  -5.5766  -5.5369  -5.5071  -5.4360
    -5.4105  -5.3412  -5.2245  -5.1431  -5.0403  -5.0013  -4.9611  -4.9268
    -4.8917  -4.7897  -4.6444  -4.5287  -4.4263  -4.2991  -4.2861  -4.2195
    -4.2008  -4.0233  -4.0161  -3.8769  -3.8136  -3.7591  -3.7162  -3.6774
    -3.6569  -3.5785  -3.5285  -3.4789  -3.4738  -3.4409  -3.4096  -3.3574
    -3.3438  -3.1773  -3.1174  -2.8935  -2.8593  -2.7725  -2.7438  -2.7013
    -2.6804  -2.6507  -2.6357  -2.6006  -2.5203  -2.2591  -2.0128  -1.9700
    -1.8760  -0.8659  -0.7367  -0.5816  -0.1685  -0.1054  -0.0938  -0.0232
     0.0452   0.1479   0.1848   0.2566   0.2949   0.3260   0.3565   0.4830
     0.5233   0.5556   0.5847   0.6231   0.6550   0.6787   0.7301   0.7741
     0.7901   0.8364   0.8433   0.9217   0.9802   0.9935   1.0640   1.2623
     1.4052

     the Fermi energy is    -0.8820 ev

!    total energy              =   -2205.54058970 Ry
     estimated scf accuracy    <       0.00000053 Ry
     smearing contrib. (-TS)   =      -0.00741188 Ry
     internal energy E=F+TS    =   -2205.53317782 Ry

     The total energy is F=E-TS. E is the sum of the following terms:
     one-electron contribution =  -18049.01358344 Ry
     hartree contribution      =    9011.52095459 Ry
[...]
     atom    3 type  2   force =    -0.18716084   -0.12413121  -36.79096116
     atom    4 type  1   force =    -0.42442905    0.22888715    0.29411653
     atom    5 type  2   force =    -0.72997739    1.41906112   38.28721628
     atom    6 type  2   force =     0.15605182   -0.44867084  -37.53456688
     atom    7 type  1   force =    -2.83317350   -2.02501264    2.58220909
     atom    8 type  2   force =    -1.13120031    0.04014865   38.10198421
     atom    9 type  2   force =     0.18216288    0.00771696  -37.88081644
     atom   10 type  1   force =     0.01891377   -0.07864391    4.23987892
     atom   11 type  2   force =    -0.72740149   -2.02491122   38.39922411
     atom   12 type  2   force =     0.18033727    0.30293596  -37.64477207
     atom   13 type  1   force =     0.25345320    0.74117833    1.87448877
     atom   14 type  2   force =    -0.61977189    0.05731751   38.42507931
     atom   15 type  2   force =     0.18864345   -0.04590263  -37.38773913
     atom   16 type  1   force =     0.29386068    3.44990367    2.48783566
     atom   17 type  2   force =     0.73160364    1.18539672   38.33365299
     atom   18 type  2   force =     0.05785094   -0.29687163  -38.06890517
     atom   19 type  1   force =     3.05775560   -1.56580966    2.69612382
     atom   20 type  2   force =     0.08762193    0.03744021  -38.44248866
     atom   21 type  1   force =    -0.21757736   -0.75588456    1.02009792
     atom   22 type  2   force =     0.33982330   -1.51075137   38.28912135
     atom   23 type  2   force =    -0.06957614    0.21846106  -37.81081409
     atom   24 type  1   force =    -1.38292278   -0.18798266   -0.30846648
     atom   25 type  2   force =    -0.03918789    0.12969960   38.49430902
     atom   26 type  2   force =     0.08311054   -0.27459427  -38.12017845
     atom   27 type  1   force =     0.14100639    0.44075522   -0.03196959
     atom   28 type  2   force =    -0.04481942    0.29867210   37.89109630
     atom   29 type  2   force =    -0.23284018    0.08417888  -38.13168723
     atom   30 type  1   force =    -0.08699486   -0.65426581    1.59270534
     atom   31 type  2   force =     1.13500651    0.08958623   38.34926350
     atom   32 type  2   force =    -0.32818025    0.09525455  -38.13902040
     atom   33 type  1   force =     0.42638481   -0.49038135    1.89493495
     atom   34 type  2   force =     0.30242678   -0.60247572   38.75378364
     atom   35 type  2   force =    -0.16601665    0.21376917  -37.46375438
     atom   36 type  3   force =    -0.71140714   -0.43216901    8.32107472
     The local contribution  to forces
     atom    1 type  1   force =    -0.63128864   -1.25946013   -4.75572021
     atom    2 type  2   force =    -1.43165613   -1.12133400  -38.64968855
     atom    3 type  2   force =     0.18769034    0.13492087   36.54009825
     atom    4 type  1   force =     0.41735050   -0.23815374   -0.29773833
     atom    5 type  2   force =     0.72655198   -1.39115243  -38.05754079
     atom    6 type  2   force =    -0.15609374    0.45036462   37.28836685
     atom    7 type  1   force =     2.85198249    2.02673249   -2.55654504
     atom    8 type  2   force =     1.12471599   -0.03888891  -37.85815062
     atom    9 type  2   force =    -0.17698532    0.00438530   37.63425077
     atom   10 type  1   force =    -0.02238416    0.07123462   -4.23712663
     atom   11 type  2   force =     0.72259025    2.01973531  -38.17637520
     atom   12 type  2   force =    -0.17387405   -0.28500922   37.39940026
     atom   13 type  1   force =    -0.25043673   -0.76459096   -1.87340507
     atom   14 type  2   force =     0.61700326   -0.04523702  -38.19325174
     atom   15 type  2   force =    -0.18484283    0.05336299   37.14612529
     atom   16 type  1   force =    -0.28878208   -3.48897012   -2.45436486
     atom   17 type  2   force =    -0.73134474   -1.16378148  -38.09902726
     atom   18 type  2   force =    -0.05427232    0.30078588   37.82261295
     atom   19 type  1   force =    -3.07544862    1.56005264   -2.67082670
     atom   20 type  2   force =    -0.08634702   -0.02463937   38.20038116
     atom   21 type  1   force =     0.21860056    0.73185444   -1.02230064
     atom   22 type  2   force =    -0.33348410    1.51120779  -38.05258563
     atom   23 type  2   force =     0.06097620   -0.20764573   37.56344161
     atom   24 type  1   force =     1.38849763    0.17376706    0.30871992
     atom   25 type  2   force =     0.02389799   -0.11622188  -38.26100700
     atom   26 type  2   force =    -0.08268517    0.27824901   37.87345864
     atom   27 type  1   force =    -0.13768728   -0.44902690    0.02812378
     atom   28 type  2   force =     0.04388998   -0.29873138  -37.64761990
     atom   29 type  2   force =     0.23036674   -0.07357616   37.88340397
     atom   30 type  1   force =     0.08397475    0.63574601   -1.59759194
     atom   31 type  2   force =    -1.12524497   -0.09265720  -38.10748406
     atom   32 type  2   force =     0.32542726   -0.08224212   37.89323225
     atom   33 type  1   force =    -0.42630045    0.48332834   -1.89864913
     atom   34 type  2   force =    -0.29609772    0.60824724  -38.50652561
     atom   35 type  2   force =     0.16355642   -0.20073912   37.21848707
     atom   36 type  3   force =     0.67710021    0.41270870   -8.28185938
     The core correction contribution to forces
     atom    1 type  1   force =     0.00000000    0.00000000    0.00000000
     atom    2 type  2   force =     0.01628669    0.00859911    0.00308500
     atom    3 type  2   force =    -0.00031758    0.00021196   -0.02112550
     atom    4 type  1   force =     0.00000000    0.00000000    0.00000000
     atom    5 type  2   force =    -0.00026575    0.00159408    0.01999077
     atom    6 type  2   force =     0.00009014   -0.00048016   -0.02080411
     atom    7 type  1   force =     0.00000000    0.00000000    0.00000000
     atom    8 type  2   force =    -0.00033597    0.00032872    0.02077049
     atom    9 type  2   force =     0.00051620    0.00068180   -0.02091885
     atom   10 type  1   force =     0.00000000    0.00000000    0.00000000
     atom   11 type  2   force =    -0.00030411   -0.00084242    0.01955912
     atom   12 type  2   force =     0.00063965    0.00128236   -0.02086340
     atom   13 type  1   force =     0.00000000    0.00000000    0.00000000
     atom   14 type  2   force =    -0.00064350    0.00021474    0.02006198
     atom   15 type  2   force =     0.00035729    0.00032484   -0.02073042
     atom   16 type  1   force =     0.00000000    0.00000000    0.00000000
     atom   17 type  2   force =     0.00006668    0.00095545    0.02035976
     atom   18 type  2   force =     0.00009184   -0.00022342   -0.02087126
     atom   19 type  1   force =     0.00000000    0.00000000    0.00000000
     atom   20 type  2   force =     0.00001955    0.00059687   -0.02115981
     atom   21 type  1   force =     0.00000000    0.00000000    0.00000000
     atom   22 type  2   force =     0.00000962   -0.00011882    0.02035699
     atom   23 type  2   force =    -0.00067319    0.00077624   -0.02088513
     atom   24 type  1   force =     0.00000000    0.00000000    0.00000000
     atom   25 type  2   force =    -0.00088511    0.00071706    0.02025259
     atom   26 type  2   force =     0.00025498    0.00000936   -0.02096167
     atom   27 type  1   force =     0.00000000    0.00000000    0.00000000
     atom   28 type  2   force =     0.00008845    0.00007348    0.02072854
     atom   29 type  2   force =    -0.00011600    0.00058377   -0.02091579
     atom   30 type  1   force =     0.00000000    0.00000000    0.00000000
     atom   31 type  2   force =     0.00044783    0.00004383    0.02077205
     atom   32 type  2   force =    -0.00041404    0.00072757   -0.02095485
     atom   33 type  1   force =     0.00000000    0.00000000    0.00000000
     atom   34 type  2   force =     0.00059562    0.00005764    0.02086155
     atom   35 type  2   force =    -0.00035071    0.00091997   -0.02091169
     atom   36 type  3   force =     0.00000000    0.00000000    0.00000000
     The Hubbard contrib.    to forces
     atom    1 type  1   force =     0.00000000    0.00000000    0.00000000
     atom    2 type  2   force =     0.00000000    0.00000000    0.00000000
     atom    3 type  2   force =     0.00000000    0.00000000    0.00000000
     atom    4 type  1   force =     0.00000000    0.00000000    0.00000000
     atom    5 type  2   force =     0.00000000    0.00000000    0.00000000
     atom    6 type  2   force =     0.00000000    0.00000000    0.00000000
     atom    7 type  1   force =     0.00000000    0.00000000    0.00000000
     atom    8 type  2   force =     0.00000000    0.00000000    0.00000000
     atom    9 type  2   force =     0.00000000    0.00000000    0.00000000
     atom   10 type  1   force =     0.00000000    0.00000000    0.00000000
     atom   11 type  2   force =     0.00000000    0.00000000    0.00000000
     atom   12 type  2   force =     0.00000000    0.00000000    0.00000000
     atom   13 type  1   force =     0.00000000    0.00000000    0.00000000
     atom   14 type  2   force =     0.00000000    0.00000000    0.00000000
     atom   15 type  2   force =     0.00000000    0.00000000    0.00000000
     atom   16 type  1   force =     0.00000000    0.00000000    0.00000000
     atom   17 type  2   force =     0.00000000    0.00000000    0.00000000
     atom   18 type  2   force =     0.00000000    0.00000000    0.00000000
     atom   19 type  1   force =     0.00000000    0.00000000    0.00000000
     atom   20 type  2   force =     0.00000000    0.00000000    0.00000000
     atom   21 type  1   force =     0.00000000    0.00000000    0.00000000
     atom   22 type  2   force =     0.00000000    0.00000000    0.00000000
     atom   23 type  2   force =     0.00000000    0.00000000    0.00000000
     atom   24 type  1   force =     0.00000000    0.00000000    0.00000000
     atom   25 type  2   force =     0.00000000    0.00000000    0.00000000
     atom   26 type  2   force =     0.00000000    0.00000000    0.00000000
     atom   27 type  1   force =     0.00000000    0.00000000    0.00000000
     atom   28 type  2   force =     0.00000000    0.00000000    0.00000000
     atom   29 type  2   force =     0.00000000    0.00000000    0.00000000
     atom   30 type  1   force =     0.00000000    0.00000000    0.00000000
     atom   31 type  2   force =     0.00000000    0.00000000    0.00000000
     atom   32 type  2   force =     0.00000000    0.00000000    0.00000000
     atom   33 type  1   force =     0.00000000    0.00000000    0.00000000
     atom   34 type  2   force =     0.00000000    0.00000000    0.00000000
     atom   35 type  2   force =     0.00000000    0.00000000    0.00000000
     atom   36 type  3   force =     0.00000000    0.00000000    0.00000000
     The SCF correction term to forces
     atom    1 type  1   force =     0.00003313   -0.00001820   -0.00000380
     atom    2 type  2   force =     0.00002481   -0.00002170   -0.00001472
     atom    3 type  2   force =     0.00000671   -0.00002490    0.00000859
     atom    4 type  1   force =    -0.00000026   -0.00000673    0.00000668
     atom    5 type  2   force =    -0.00000034    0.00000611    0.00001105
     atom    6 type  2   force =     0.00001013    0.00000683    0.00000171
     atom    7 type  1   force =     0.00000928    0.00002097   -0.00001331
     atom    8 type  2   force =     0.00000145   -0.00000151   -0.00000175
     atom    9 type  2   force =     0.00000407    0.00000601   -0.00000616
     atom   10 type  1   force =     0.00000208    0.00001556    0.00000596
     atom   11 type  2   force =    -0.00000119    0.00001572   -0.00001790
     atom   12 type  2   force =    -0.00000026   -0.00000214    0.00000492
     atom   13 type  1   force =     0.00001396   -0.00003620    0.00001231
     atom   14 type  2   force =    -0.00001032   -0.00001300    0.00001963
     atom   15 type  2   force =    -0.00000228   -0.00001888   -0.00000138
     atom   16 type  1   force =     0.00001155   -0.00001339    0.00001920
     atom   17 type  2   force =     0.00000980    0.00000305    0.00001795
     atom   18 type  2   force =    -0.00000090    0.00000430   -0.00000568
     atom   19 type  1   force =     0.00001927    0.00002422   -0.00001561
     atom   20 type  2   force =     0.00001317    0.00001557   -0.00000965
     atom   21 type  1   force =     0.00000551   -0.00001300    0.00001354
     atom   22 type  2   force =     0.00001011    0.00000860   -0.00000549
     atom   23 type  2   force =     0.00000590    0.00000186    0.00000569
     atom   24 type  1   force =    -0.00001152   -0.00003889    0.00004450
     atom   25 type  2   force =    -0.00000613   -0.00000195    0.00000408
     atom   26 type  2   force =    -0.00000238   -0.00002123    0.00000192
     atom   27 type  1   force =    -0.00000614    0.00000799   -0.00000754
     atom   28 type  2   force =    -0.00001441   -0.00000510    0.00001064
     atom   29 type  2   force =    -0.00001265    0.00001374   -0.00000720
     atom   30 type  1   force =    -0.00000316   -0.00001083   -0.00001184
     atom   31 type  2   force =    -0.00001041    0.00000545    0.00001035
     atom   32 type  2   force =    -0.00001842    0.00000973   -0.00000765
     atom   33 type  1   force =    -0.00001508    0.00000017   -0.00000375
     atom   34 type  2   force =    -0.00000723    0.00001193   -0.00000213
     atom   35 type  2   force =    -0.00000454    0.00001032   -0.00000295
     atom   36 type  3   force =    -0.00000093   -0.00000212    0.00000196

     Total force =     0.005642     Total SCF correction =     0.000136
     Energy error            =      6.7E-05 Ry
     Gradient error          =      1.8E-03 Ry/Bohr

     bfgs converged in  20 scf cycles and  19 bfgs steps
     (criteria: energy <  1.0E-04 Ry, force <  1.0E-02 Ry/Bohr)

     End of BFGS Geometry Optimization

     Final energy             =   -2205.5811110682 Ry

     File ./MoS2-V-O.bfgs deleted, as requested
Begin final coordinates

ATOMIC_POSITIONS (angstrom)
Mo            6.5670611844        1.7390588374        2.8099337732
S             8.0526613415        0.7610822251        4.5376543850
S             8.1341908213        0.8313892156        1.2141975435
Mo            8.1472466716        4.4801920506        2.7063523511
S             6.5401721482        3.6795179172        4.3211535424
S             6.5639829144        3.5387895207        1.1377090365
Mo            6.5308144683        7.1703066712        2.6710045966
S             8.1079670894        6.2928019587        4.2963865960
S             8.1511354782        6.3184832686        1.1097952895
Mo            8.1394132663        9.9256993463        2.8052968901
S             6.5090746884        8.9227352304        4.3403286553
S             6.6073575703        9.0302669597        1.1469577595
Mo            3.4320590654        1.7558329839        2.7468427109
S             4.9646877853        0.8117660797        4.3486773515
S             5.0258113913        0.8350606247        1.1786517168
Mo            5.0021844408        4.5352676601        2.6683084075
S             3.4650399132        3.6596836602        4.3065347999
S             3.4520467875        3.5638531085        1.1040921486
Mo            3.4678444108        7.1755265746        2.6682025843
S             5.0040829279        6.3066601471        1.0527734408
Mo            4.9970724335        9.9037519408        2.7370534430
S             3.4466613694        8.9603243186        4.3146271163
S             3.4062144953        9.0358118791        1.1250118405
Mo            0.3042567233        1.7626670904        2.6974501027
S             1.8410701447        0.8620802045        4.3380513726
S             1.8689271967        0.8465783533        1.1291621952
Mo            1.8811035368        4.5027885358        2.6949464236
S             0.2913005048        3.5938541755        4.2924824006
S             0.2905733364        3.5704371289        1.1083986208
Mo            0.2803840855        7.2147191775        2.7294828314
S             1.9154409661        6.2976462291        4.3038372708
S             1.8642901391        6.3368674696        1.0959898901
Mo            1.8442071242        9.9511240396        2.7495529743
S             0.2921265764        9.0135480018        4.3627928644
S             0.2549741895        9.0529818894        1.1702635273
H             7.1841676035       11.1706919365        5.5063663669
End final coordinates

     Writing all to output data dir ./MoS2-V-O.save/

     General routines

     Parallel routines

   This run was terminated on:  12: 6: 4   4Nov2023

   JOB DONE.