     Program PWSCF v.7.2 starts on  4Nov2023 at  6:20:31

     Waiting for input...
     Reading input from standard input
Warning: card &CELL ignored
Warning: card CELL_DYNAMICS = 'BFGS', ignored
Warning: card CELL_DOFREE = '2DXY' ignored
Warning: card / ignored

     Current dimensions of program PWSCF are:
     Max number of different atomic species (ntypx) = 10
     Max number of k-points (npk) =  40000
     Max angular momentum in pseudopotentials (lmaxx) =  4

     IMPORTANT: XC functional enforced from input :
     Exchange-correlation= RVV10
                           (   1   4  13   4  26   0   0)
     Any further DFT definition will be discarded
     Please, verify this is what you really want

     gamma-point specific algorithms are used
     signal trapping enabled: kill the code with -SIGUSR1 to stop cleanly the simulation

     R & G space division:  proc/nbgrp/npool/nimage =      48
     Subspace diagonalization in iterative solution of the eigenvalue problem:
     one sub-group per band group will be used

     Using Slab Decomposition

     bravais-lattice index     =            0
     lattice parameter (alat)  =      17.8707  a.u.
     unit-cell volume          =   17436.2743 (a.u.)^3
     number of atoms/cell      =           36
     number of atomic types    =            3
     number of electrons       =       307.00
     number of Kohn-Sham states=          185
     kinetic-energy cutoff     =      80.0000  Ry
     charge density cutoff     =     400.0000  Ry
     scf convergence threshold =      1.0E-06
     mixing beta               =       0.7000
     number of iterations used =            8  local-TF  mixing
     energy convergence thresh.=      1.0E-04
     force convergence thresh. =      1.0E-02
     Exchange-correlation= RVV10
                           (   1   4  13   4  26   0   0)
     nstep                     =          200

     celldm(1)=  17.870686  celldm(2)=   0.000000  celldm(3)=   0.000000
     celldm(4)=   0.000000  celldm(5)=   0.000000  celldm(6)=   0.000000

     crystal axes: (cart. coord. in units of alat)
               a(1) = (   1.000000   0.000000   0.000000 )
               a(2) = (   0.000000   1.155671   0.000000 )
               a(3) = (   0.000000   0.000000   2.643601 )

     reciprocal axes: (cart. coord. in units 2 pi/alat)
               b(1) = (  1.000000  0.000000  0.000000 )
               b(2) = (  0.000000  0.865298  0.000000 )
               b(3) = (  0.000000  0.000000  0.378272 )

     PseudoPot. # 1 for Mo read from file:
     ../pseudo/Mo_ONCV_PBE-1.0.oncvpsp.upf
     MD5 check sum: 1b5d28e075c9ccadda658a603575cd1f
     Pseudo is Norm-conserving, Zval = 14.0
     Generated using ONCVPSP code by D. R. Hamann
     Using radial grid of 1526 points,  6 beta functions with:
                l(1) =   0
                l(2) =   0
                l(3) =   1
                l(4) =   1
                l(5) =   2
                l(6) =   2

     PseudoPot. # 2 for S  read from file:
     ../pseudo/s_pbe_v1.4.uspp.F.UPF
     MD5 check sum: 88d86576ff6df21479756cfb9bdac1df
     Pseudo is Ultrasoft + core correction, Zval =  6.0
     Generated by new atomic code, or converted to UPF format
     Using radial grid of  907 points,  6 beta functions with:
                l(1) =   0
                l(2) =   0
                l(3) =   1
                l(4) =   1
                l(5) =   2
                l(6) =   2
     Q(r) pseudized with  8 coefficients,  rinner =    1.300   1.300   1.300
                                                       1.300   1.300

     PseudoPot. # 3 for H  read from file:
     ../pseudo/H_ONCV_PBE-1.0.oncvpsp.upf
     MD5 check sum: 1790becc920ee074925cf490c71280fe
     Pseudo is Norm-conserving, Zval =  1.0
     Generated using ONCVPSP code by D. R. Hamann
     Using radial grid of 1166 points,  2 beta functions with:
                l(1) =   0
                l(2) =   0

     atomic species   valence    mass     pseudopotential
        Mo            14.00    95.94000     Mo( 1.00)
        S              6.00    32.06500     S ( 1.00)
        H              1.00     1.00794     H ( 1.00)

     No symmetry found

   Cartesian axes

     site n.     atom                  positions (alat units)
         1           Mo  tau(   1) = (   0.6952221   0.1890506   0.2985846  )
         2           S   tau(   2) = (   0.8646417   0.0856217   0.4689279  )
         3           S   tau(   3) = (   0.8663890   0.0857843   0.1351291  )
         4           Mo  tau(   4) = (   0.8560186   0.4753274   0.2873942  )
         5           S   tau(   5) = (   0.6873294   0.3936244   0.4596353  )
         6           S   tau(   6) = (   0.6929804   0.3713468   0.1185692  )
         7           Mo  tau(   7) = (   0.6862796   0.7633098   0.2825370  )
         8           S   tau(   8) = (   0.8545980   0.6708292   0.4486168  )
         9           S   tau(   9) = (   0.8545123   0.6666874   0.1146125  )
        10           Mo  tau(  10) = (   0.8629403   1.0471007   0.3006803  )
        11           S   tau(  11) = (   0.6868280   0.9456650   0.4634891  )
        12           S   tau(  12) = (   0.6998113   0.9568511   0.1205389  )
        13           Mo  tau(  13) = (   0.3618216   0.1847309   0.2935964  )
        14           S   tau(  14) = (   0.5260962   0.0863870   0.4600448  )
        15           S   tau(  15) = (   0.5348379   0.0894875   0.1297123  )
        16           Mo  tau(  16) = (   0.5265817   0.4772436   0.2784130  )
        17           S   tau(  17) = (   0.3624753   0.3882513   0.4525556  )
        18           S   tau(  18) = (   0.3635411   0.3752055   0.1119148  )
        19           Mo  tau(  19) = (   0.3652268   0.7630864   0.2781795  )
        20           S   tau(  20) = (   0.5269494   0.6690381   0.1096838  )
        21           Mo  tau(  21) = (   0.5300192   1.0470394   0.2900995  )
        22           S   tau(  22) = (   0.3670346   0.9457522   0.4574073  )
        23           S   tau(  23) = (   0.3604225   0.9585725   0.1159032  )
        24           Mo  tau(  24) = (   0.0313099   0.1847895   0.3013130  )
        25           S   tau(  25) = (   0.1956761   0.0838230   0.4650863  )
        26           S   tau(  26) = (   0.1967693   0.0903508   0.1278874  )
        27           Mo  tau(  27) = (   0.1967578   0.4753919   0.2813011  )
        28           S   tau(  28) = (   0.0287851   0.3864324   0.4586755  )
        29           S   tau(  29) = (   0.0244514   0.3729871   0.1239344  )
        30           Mo  tau(  30) = (   0.0286728   0.7631204   0.2856894  )
        31           S   tau(  31) = (   0.2011512   0.6675435   0.4465001  )
        32           S   tau(  32) = (   0.1969214   0.6672839   0.1104564  )
        33           Mo  tau(  33) = (   0.1950294   1.0511147   0.2932237  )
        34           S   tau(  34) = (   0.0312912   0.9612169   0.4667423  )
        35           S   tau(  35) = (   0.0292670   0.9563028   0.1216485  )
        36           H   tau(  36) = (   0.7777778   0.7704471   0.5656742  )

     number of k points=     1  Gaussian smearing, width (Ry)=  0.0100
                       cart. coord. in units 2pi/alat
        k(    1) = (   0.0000000   0.0000000   0.0000000), wk =   2.0000000

     Initial potential from superposition of free atoms

     starting charge     306.9873, renormalised to     307.0000

     negative rho (up, down):  1.407E-04 0.000E+00

Carrying out rVV10 run using the following parameters:
Nqs =      20    Nr_points =    1024   r_max =   100.000
b_value =  6.30000    beta =  0.00901
     q_mesh =  0.00010000  0.00030000  0.00058939  0.00100810
               0.00161396  0.00249058  0.00375900  0.00559430
               0.00824984  0.01209221  0.01765183  0.02569619
               0.03733578  0.05417739  0.07854596  0.11380545
               0.16482331  0.23864234  0.34545298  0.50000000

Gradients computed in Reciprocal space

     Starting wfcs are  213 randomized atomic wfcs

     Self-consistent Calculation

     iteration #  1     ecut=    80.00 Ry     beta= 0.70
     Davidson diagonalization with overlap
     ethr =  1.00E-02,  avg # of iterations =  2.0

     Threshold (ethr) on eigenvalues was too large:
     Diagonalizing with lowered threshold

     Davidson diagonalization with overlap
     ethr =  3.79E-04,  avg # of iterations =  4.0

[...]

     total energy              =   -2205.59508951 Ry
     estimated scf accuracy    <       1.45077529 Ry

[...]

     iteration #  4     ecut=    80.00 Ry     beta= 0.70
     Davidson diagonalization with overlap
     c_bands:  2 eigenvalues not converged
     ethr =  2.48E-05,  avg # of iterations = 20.0

[...]

     End of self-consistent calculation

          k = 0.0000 0.0000 0.0000 (105382 PWs)   bands (ev):

   -62.8673 -62.8599 -62.8536 -62.8241 -62.8181 -62.8116 -62.8037 -62.8000
   -62.7752 -62.7671 -62.6910 -62.6084 -37.2076 -37.1400 -37.1285 -37.1211
   -37.1061 -37.0833 -37.0735 -37.0625 -37.0505 -37.0452 -37.0388 -37.0297
   -37.0154 -37.0105 -37.0035 -36.9957 -36.9890 -36.9874 -36.9794 -36.9674
   -36.9557 -36.9365 -36.9310 -36.9085 -36.8982 -36.8806 -36.8730 -36.8566
   -36.8469 -36.8418 -36.8240 -36.7922 -36.7753 -36.7498 -36.6870 -36.6530
   -16.0387 -15.4522 -15.1740 -15.0206 -14.8931 -14.8293 -14.6324 -14.4753
   -14.4436 -14.4156 -14.3706 -14.3185 -14.2939 -14.2584 -14.1533 -14.1294
   -14.0940 -14.0826 -14.0053 -13.8765 -13.8371 -13.8132 -13.7767  -8.4013
    -7.6019  -7.4464  -7.3107  -7.2293  -7.1772  -7.1675  -7.1146  -7.0268
    -6.8235  -6.7871  -6.7697  -6.6748  -6.6094  -6.5163  -6.4125  -6.3961
    -6.3151  -6.2381  -6.0933  -5.9150  -5.8968  -5.8782  -5.8211  -5.7640
    -5.7527  -5.6961  -5.6700  -5.6400  -5.6139  -5.5163  -5.5006  -5.4825
    -5.4467  -5.4050  -5.1458  -5.1360  -5.1013  -4.9910  -4.9668  -4.8978
    -4.8957  -4.8130  -4.6754  -4.5231  -4.3475  -4.3074  -4.2802  -4.2319
    -4.2041  -4.0299  -4.0088  -3.9267  -3.7916  -3.7575  -3.7200  -3.6912
    -3.6450  -3.5595  -3.5172  -3.4754  -3.4648  -3.4476  -3.4065  -3.3689
    -3.3506  -3.2229  -3.1233  -2.8700  -2.8601  -2.7780  -2.7604  -2.6990
    -2.6934  -2.6611  -2.6327  -2.6018  -2.5476  -2.2830  -1.9864  -1.9683
    -1.9127  -0.9709  -0.7488  -0.5964  -0.1668  -0.1294  -0.0978   0.0199
     0.0556   0.1502   0.2511   0.2553   0.2727   0.3264   0.3506   0.4540
     0.5018   0.5440   0.5829   0.6092   0.6324   0.6681   0.7215   0.7860
     0.7906   0.8152   0.8646   0.9144   0.9597   1.0094   1.0647   1.2598
     1.3872

     the Fermi energy is    -0.9733 ev

!    total energy              =   -2205.52710763 Ry
     estimated scf accuracy    <       0.00000026 Ry
     smearing contrib. (-TS)   =      -0.00601342 Ry
     internal energy E=F+TS    =   -2205.52109422 Ry

     The total energy is F=E-TS. E is the sum of the following terms:
     one-electron contribution =  -18046.52457356 Ry
     hartree contribution      =    9010.21035222 Ry
     xc contribution           =    -385.26251043 Ry
     ewald contribution        =    7216.05563756 Ry

     convergence has been achieved in  15 iterations

[...]

     Forces acting on atoms (cartesian axes, Ry/au):

[...]
     atom    3 type  2   force =     0.09227596   -0.10363284  -37.72201020
     atom    4 type  1   force =    -0.09552013    1.44008528    0.53026297
     atom    5 type  2   force =    -0.78974276    1.30583820   38.27553429
     atom    6 type  2   force =     0.08248667   -0.08341791  -38.31592346
     atom    7 type  1   force =    -2.83681226   -3.13220027    3.35552766
     atom    8 type  2   force =    -1.34348923   -1.54111488   36.97148610
     atom    9 type  2   force =     0.30534304    0.03789031  -37.21088912
     atom   10 type  1   force =    -0.30358966   -0.30729238    2.31866038
     atom   11 type  2   force =    -0.69455398   -1.02368186   38.63699691
     atom   12 type  2   force =     0.18442874    0.13723364  -38.08363060
     atom   13 type  1   force =     0.03791731    0.73926456    1.46570096
     atom   14 type  2   force =    -0.05569208    0.09456224   38.49129922
     atom   15 type  2   force =    -0.06451225   -0.17382134  -37.77127137
     atom   16 type  1   force =     0.19548832    3.89471854    0.81736103
     atom   17 type  2   force =     0.84074610    1.17222418   38.19898288
     atom   18 type  2   force =    -0.29682543   -0.10237792  -38.22039643
     atom   19 type  1   force =     2.70561192   -1.99265355    4.15049392
     atom   20 type  2   force =     0.06552842    0.01620143  -38.19757286
     atom   21 type  1   force =    -0.37644242   -0.36846497    0.86580811
     atom   22 type  2   force =     0.41545124   -1.34384074   38.52869748
     atom   23 type  2   force =    -0.23181344    0.02052275  -37.66005394
     atom   24 type  1   force =     0.12529924    0.58408086    1.89506677
     atom   25 type  2   force =     0.21640507    0.17319521   38.77789993
     atom   26 type  2   force =    -0.04469689   -0.13242741  -37.71568293
     atom   27 type  1   force =     0.04683007    0.52170493    0.62885040
     atom   28 type  2   force =    -0.09010153    0.55784845   38.03352131
     atom   29 type  2   force =     0.11486098    0.12901250  -37.69781612
     atom   30 type  1   force =     0.20948869   -1.32020381    2.82384092
     atom   31 type  2   force =     1.25084714   -0.04958458   38.35502531
     atom   32 type  2   force =    -0.31670737    0.11692105  -37.53836835
     atom   33 type  1   force =     0.66005852   -0.55042837    2.67147082
     atom   34 type  2   force =     0.27222175   -0.12124437   38.78759911
     atom   35 type  2   force =     0.06289043   -0.06035246  -37.50203951
     atom   36 type  3   force =    -0.03991238    0.46833391    8.47011218
     The local contribution  to forces
     atom    1 type  1   force =     0.12990143   -0.74699249   -1.79864563
     atom    2 type  2   force =     0.17531601   -0.26283902  -38.53403429
     atom    3 type  2   force =    -0.09119339    0.11449138   37.47610562
     atom    4 type  1   force =     0.09716306   -1.44357479   -0.51388937
     atom    5 type  2   force =     0.79022725   -1.28038325  -38.04910625
     atom    6 type  2   force =    -0.08301323    0.08739619   38.07088756
     atom    7 type  1   force =     2.86101680    3.14162803   -3.34054262
     atom    8 type  2   force =     1.29777287    1.36688281  -37.10289510
     atom    9 type  2   force =    -0.30007045   -0.02758456   36.95223394
     atom   10 type  1   force =     0.30134332    0.30074557   -2.32345435
     atom   11 type  2   force =     0.68752150    1.02632210  -38.41191336
     atom   12 type  2   force =    -0.17974552   -0.12554523   37.84042067
     atom   13 type  1   force =    -0.04226678   -0.76299388   -1.46334096
     atom   14 type  2   force =     0.05495844   -0.08198850  -38.24630138
     atom   15 type  2   force =     0.06432916    0.18140777   37.53112141
     atom   16 type  1   force =    -0.20382169   -3.93272073   -0.79222956
     atom   17 type  2   force =    -0.83535949   -1.15071218  -37.96787115
     atom   18 type  2   force =     0.29736850    0.10660955   37.97716014
     atom   19 type  1   force =    -2.73725979    1.99379307   -4.12281318
     atom   20 type  2   force =    -0.06363122   -0.00073705   37.95535928
     atom   21 type  1   force =     0.37660375    0.34024898   -0.86928114
     atom   22 type  2   force =    -0.41017671    1.35011594  -38.29058703
     atom   23 type  2   force =     0.22242412   -0.00957203   37.41574431
     atom   24 type  1   force =    -0.12634556   -0.59906305   -1.89274097
     atom   25 type  2   force =    -0.21742555   -0.16202146  -38.53632548
     atom   26 type  2   force =     0.04236735    0.14233835   37.47071980
     atom   27 type  1   force =    -0.04607531   -0.52730847   -0.63396028
     atom   28 type  2   force =     0.08856755   -0.54258207  -37.78711945
     atom   29 type  2   force =    -0.10839822   -0.11972233   37.44786591
     atom   30 type  1   force =    -0.21290321    1.29715055   -2.82872696
     atom   31 type  2   force =    -1.23687914    0.04571683  -38.11750768
     atom   32 type  2   force =     0.30944504   -0.09998067   37.29418046
     atom   33 type  1   force =    -0.66116579    0.54249884   -2.67308469
     atom   34 type  2   force =    -0.27231303    0.13433465  -38.55117603
     atom   35 type  2   force =    -0.06480926    0.07245568   37.25571122
     atom   36 type  3   force =     0.04522723   -0.44191219   -8.41959533
     The core correction contribution to forces
     atom    1 type  1   force =     0.00000000    0.00000000    0.00000000
     atom    2 type  2   force =    -0.00012263    0.00064285    0.02069581
     atom    3 type  2   force =     0.00012627    0.00048166   -0.02090958
     atom    4 type  1   force =     0.00000000    0.00000000    0.00000000
     atom    5 type  2   force =    -0.00029012    0.00112073    0.01997342
     atom    6 type  2   force =    -0.00010206   -0.00025232   -0.02096187
     atom    7 type  1   force =     0.00000000    0.00000000    0.00000000
     atom    8 type  2   force =    -0.00283516   -0.01216809   -0.00442242
     atom    9 type  2   force =     0.00041318    0.00068907   -0.02138536
     atom   10 type  1   force =     0.00000000    0.00000000    0.00000000
     atom   11 type  2   force =    -0.00036386    0.00024344    0.01977531
     atom   12 type  2   force =     0.00047180    0.00082296   -0.02080516
     atom   13 type  1   force =     0.00000000    0.00000000    0.00000000
     atom   14 type  2   force =    -0.00006364    0.00040955    0.02076477
     atom   15 type  2   force =     0.00002145    0.00035565   -0.02059524
     atom   16 type  1   force =     0.00000000    0.00000000    0.00000000
     atom   17 type  2   force =     0.00059116    0.00093144    0.02014376
     atom   18 type  2   force =    -0.00021972   -0.00017507   -0.02077380
     atom   19 type  1   force =     0.00000000    0.00000000    0.00000000
     atom   20 type  2   force =     0.00019807    0.00077706   -0.02108176
     atom   21 type  1   force =     0.00000000    0.00000000    0.00000000
     atom   22 type  2   force =     0.00015377    0.00022161    0.02040529
     atom   23 type  2   force =    -0.00073289    0.00059156   -0.02078488
     atom   24 type  1   force =     0.00000000    0.00000000    0.00000000
     atom   25 type  2   force =     0.00006217    0.00063316    0.02059820
     atom   26 type  2   force =    -0.00013635    0.00036522   -0.02084114
     atom   27 type  1   force =     0.00000000    0.00000000    0.00000000
     atom   28 type  2   force =    -0.00010979    0.00086505    0.02073198
     atom   29 type  2   force =     0.00033555    0.00031611   -0.02095775
     atom   30 type  1   force =     0.00000000    0.00000000    0.00000000
     atom   31 type  2   force =     0.00080549   -0.00002090    0.02030660
     atom   32 type  2   force =    -0.00066188    0.00096260   -0.02072156
     atom   33 type  1   force =     0.00000000    0.00000000    0.00000000
     atom   34 type  2   force =     0.00008575    0.00096840    0.02025440
     atom   35 type  2   force =    -0.00012396    0.00070570   -0.02100849
     atom   36 type  3   force =     0.00000000    0.00000000    0.00000000
     The Hubbard contrib.    to forces
     atom    1 type  1   force =     0.00000000    0.00000000    0.00000000
     atom    2 type  2   force =     0.00000000    0.00000000    0.00000000
     atom    3 type  2   force =     0.00000000    0.00000000    0.00000000
     atom    4 type  1   force =     0.00000000    0.00000000    0.00000000
     atom    5 type  2   force =     0.00000000    0.00000000    0.00000000
     atom    6 type  2   force =     0.00000000    0.00000000    0.00000000
     atom    7 type  1   force =     0.00000000    0.00000000    0.00000000
     atom    8 type  2   force =     0.00000000    0.00000000    0.00000000
     atom    9 type  2   force =     0.00000000    0.00000000    0.00000000
     atom   10 type  1   force =     0.00000000    0.00000000    0.00000000
     atom   11 type  2   force =     0.00000000    0.00000000    0.00000000
     atom   12 type  2   force =     0.00000000    0.00000000    0.00000000
     atom   13 type  1   force =     0.00000000    0.00000000    0.00000000
     atom   14 type  2   force =     0.00000000    0.00000000    0.00000000
     atom   15 type  2   force =     0.00000000    0.00000000    0.00000000
     atom   16 type  1   force =     0.00000000    0.00000000    0.00000000
     atom   17 type  2   force =     0.00000000    0.00000000    0.00000000
     atom   18 type  2   force =     0.00000000    0.00000000    0.00000000
     atom   19 type  1   force =     0.00000000    0.00000000    0.00000000
     atom   20 type  2   force =     0.00000000    0.00000000    0.00000000
     atom   21 type  1   force =     0.00000000    0.00000000    0.00000000
     atom   22 type  2   force =     0.00000000    0.00000000    0.00000000
     atom   23 type  2   force =     0.00000000    0.00000000    0.00000000
     atom   24 type  1   force =     0.00000000    0.00000000    0.00000000
     atom   25 type  2   force =     0.00000000    0.00000000    0.00000000
     atom   26 type  2   force =     0.00000000    0.00000000    0.00000000
     atom   27 type  1   force =     0.00000000    0.00000000    0.00000000
     atom   28 type  2   force =     0.00000000    0.00000000    0.00000000
     atom   29 type  2   force =     0.00000000    0.00000000    0.00000000
     atom   30 type  1   force =     0.00000000    0.00000000    0.00000000
     atom   31 type  2   force =     0.00000000    0.00000000    0.00000000
     atom   32 type  2   force =     0.00000000    0.00000000    0.00000000
     atom   33 type  1   force =     0.00000000    0.00000000    0.00000000
     atom   34 type  2   force =     0.00000000    0.00000000    0.00000000
     atom   35 type  2   force =     0.00000000    0.00000000    0.00000000
     atom   36 type  3   force =     0.00000000    0.00000000    0.00000000
     The SCF correction term to forces
     atom    1 type  1   force =     0.00004512    0.00002617    0.00000520
     atom    2 type  2   force =     0.00000794   -0.00000144    0.00001798
     atom    3 type  2   force =     0.00000205   -0.00000814   -0.00000670
     atom    4 type  1   force =     0.00001923    0.00003094    0.00008728
     atom    5 type  2   force =     0.00002638    0.00003772    0.00003070
     atom    6 type  2   force =     0.00001800    0.00000725    0.00000600
     atom    7 type  1   force =     0.00003399   -0.00000555    0.00008940
     atom    8 type  2   force =     0.00000737   -0.00001132    0.00006200
     atom    9 type  2   force =    -0.00001070   -0.00000311    0.00001892
     atom   10 type  1   force =    -0.00000660   -0.00004474    0.00002064
     atom   11 type  2   force =     0.00001533   -0.00003609    0.00002053
     atom   12 type  2   force =     0.00001019   -0.00000298    0.00001179
     atom   13 type  1   force =    -0.00001159    0.00000563    0.00002069
     atom   14 type  2   force =     0.00000389   -0.00000788    0.00002495
     atom   15 type  2   force =     0.00001042   -0.00000958   -0.00001673
     atom   16 type  1   force =     0.00002002    0.00003938    0.00005972
     atom   17 type  2   force =    -0.00000977    0.00003288    0.00003268
     atom   18 type  2   force =     0.00000296    0.00000640    0.00000685
     atom   19 type  1   force =    -0.00000530   -0.00000031    0.00009513
     atom   20 type  2   force =     0.00001270    0.00000718    0.00002327
     atom   21 type  1   force =     0.00001952   -0.00006433    0.00001336
     atom   22 type  2   force =    -0.00000932   -0.00002802    0.00002217
     atom   23 type  2   force =    -0.00000112    0.00000082    0.00001734
     atom   24 type  1   force =    -0.00003528    0.00003715    0.00002928
     atom   25 type  2   force =    -0.00001197   -0.00000449    0.00002451
     atom   26 type  2   force =    -0.00001302   -0.00001509   -0.00000349
     atom   27 type  1   force =    -0.00003583    0.00003854    0.00010388
     atom   28 type  2   force =    -0.00001495    0.00003910    0.00003184
     atom   29 type  2   force =    -0.00001899    0.00000270    0.00002014
     atom   30 type  1   force =    -0.00002301   -0.00001628    0.00012552
     atom   31 type  2   force =    -0.00001776   -0.00000048    0.00005028
     atom   32 type  2   force =    -0.00000164    0.00000411    0.00002556
     atom   33 type  1   force =    -0.00001449   -0.00005291    0.00003733
     atom   34 type  2   force =    -0.00000394   -0.00003233    0.00003493
     atom   35 type  2   force =    -0.00000816    0.00000576    0.00000872
     atom   36 type  3   force =     0.00000160   -0.00000521    0.00000117

     Total force =     0.006530     Total SCF correction =     0.000330
     Energy error            =      9.7E-05 Ry
     Gradient error          =      1.9E-03 Ry/Bohr

     bfgs converged in  25 scf cycles and  24 bfgs steps
     (criteria: energy <  1.0E-04 Ry, force <  1.0E-02 Ry/Bohr)

     End of BFGS Geometry Optimization

     Final energy             =   -2205.5925056314 Ry

     File ./MoS2-V-O.bfgs deleted, as requested
Begin final coordinates

ATOMIC_POSITIONS (angstrom)
Mo            6.5426390957        1.7560643145        2.7392261648
S             8.1144688420        0.8612150960        4.3541147512
S             8.1287236168        0.8450159716        1.1587776257
Mo            8.0794257431        4.4748565378        2.6992946743
S             6.4812302661        3.6476005207        4.3016314605
S             6.5447207662        3.5565760484        1.0921016079
Mo            6.4946176080        7.2351880743        2.6961971505
S             8.0486017853        6.3967435142        4.3618272247
S             8.1161982531        6.3307915883        1.1549036137
Mo            8.1214634154        9.9494025113        2.7630170444
S             6.4999897544        8.9988242178        4.3376748102
S             6.5676956130        9.0443042231        1.1257239206
Mo            3.4052628706        1.7624087686        2.7352257557
S             4.9687520871        0.8350430396        4.3269717807
S             4.9765289501        0.8430394141        1.1493373001
Mo            4.9662239260        4.5187159845        2.6382824525
S             3.4367789148        3.6576171874        4.2942024865
S             3.3971745517        3.5707906548        1.0936546307
Mo            3.4618278667        7.1692975263        2.7019612977
S             4.9902674789        6.3300897860        1.0689225997
Mo            4.9728369267        9.9223524756        2.7275726272
S             3.4498367610        8.9642594316        4.3307367510
S             3.3801533943        9.0191257638        1.1412838280
Mo            0.2520242941        1.7433654330        2.7532327234
S             1.8471886530        0.8608115209        4.3550352367
S             1.8270057717        0.8364734458        1.1576911685
Mo            1.8284809565        4.4954451206        2.7144589434
S             0.2316662325        3.5994797930        4.3073351249
S             0.2276927933        3.5634962352        1.1370675243
Mo            0.2498421084        7.2298942062        2.7668368697
S             1.8940231868        6.2962270171        4.3235861719
S             1.8292209993        6.3328519884        1.1402525875
Mo            1.8331198804        9.9415019985        2.7663030105
S             0.2512733985        9.0547461291        4.3673845334
S             0.2465513951        9.0415761232        1.1775039874
H             8.1640966334        7.0816880824        5.5669933798
End final coordinates

     Writing all to output data dir ./MoS2-V-O.save/

     General routines

     Parallel routines

   This run was terminated on:   7: 0: 0   4Nov2023

   JOB DONE.