     Program PWSCF v.7.2 starts on  1Nov2023 at 21: 4:46

     Waiting for input...
     Reading input from standard input
Warning: card &CELL ignored
Warning: card CELL_DYNAMICS = 'BFGS', ignored
Warning: card CELL_DOFREE = '2DXY' ignored
Warning: card / ignored

     Current dimensions of program PWSCF are:
     Max number of different atomic species (ntypx) = 10
     Max number of k-points (npk) =  40000
     Max angular momentum in pseudopotentials (lmaxx) =  4
     file O.pbe-n-kjpaw_psl.0.1.UPF: wavefunction(s)  2P renormalized

     IMPORTANT: XC functional enforced from input :
     Exchange-correlation= RVV10
                           (   1   4  13   4  26   0   0)
     Any further DFT definition will be discarded
     Please, verify this is what you really want

     gamma-point specific algorithms are used
     signal trapping enabled: kill the code with -SIGUSR1 to stop cleanly the simulation

     R & G space division:  proc/nbgrp/npool/nimage =      48
     Subspace diagonalization in iterative solution of the eigenvalue problem:
     one sub-group per band group will be used

     Using Slab Decomposition

     bravais-lattice index     =            0
     lattice parameter (alat)  =      17.8707  a.u.
     unit-cell volume          =   17436.2743 (a.u.)^3
     number of atoms/cell      =           36
     number of atomic types    =            3
     number of electrons       =       312.00
     number of Kohn-Sham states=          187
     kinetic-energy cutoff     =      80.0000  Ry
     charge density cutoff     =     650.0000  Ry
     scf convergence threshold =      1.0E-06
     mixing beta               =       0.7000
     number of iterations used =            8  local-TF  mixing
     energy convergence thresh.=      1.0E-04
     force convergence thresh. =      1.0E-02
     Exchange-correlation= RVV10
                           (   1   4  13   4  26   0   0)
     nstep                     =          200

     celldm(1)=  17.870686  celldm(2)=   0.000000  celldm(3)=   0.000000
     celldm(4)=   0.000000  celldm(5)=   0.000000  celldm(6)=   0.000000

     crystal axes: (cart. coord. in units of alat)
               a(1) = (   1.000000   0.000000   0.000000 )
               a(2) = (   0.000000   1.155671   0.000000 )
               a(3) = (   0.000000   0.000000   2.643601 )

     reciprocal axes: (cart. coord. in units 2 pi/alat)
               b(1) = (  1.000000  0.000000  0.000000 )
               b(2) = (  0.000000  0.865298  0.000000 )
               b(3) = (  0.000000  0.000000  0.378272 )

     PseudoPot. # 1 for Mo read from file:
     ../pseudo/Mo_ONCV_PBE-1.0.oncvpsp.upf
     MD5 check sum: 1b5d28e075c9ccadda658a603575cd1f
     Pseudo is Norm-conserving, Zval = 14.0
     Generated using ONCVPSP code by D. R. Hamann
     Using radial grid of 1526 points,  6 beta functions with:
                l(1) =   0
                l(2) =   0
                l(3) =   1
                l(4) =   1
                l(5) =   2
                l(6) =   2

     PseudoPot. # 2 for S  read from file:
     ../pseudo/s_pbe_v1.4.uspp.F.UPF
     MD5 check sum: 88d86576ff6df21479756cfb9bdac1df
     Pseudo is Ultrasoft + core correction, Zval =  6.0
     Generated by new atomic code, or converted to UPF format
     Using radial grid of  907 points,  6 beta functions with:
                l(1) =   0
                l(2) =   0
                l(3) =   1
                l(4) =   1
                l(5) =   2
                l(6) =   2
     Q(r) pseudized with  8 coefficients,  rinner =    1.300   1.300   1.300
                                                       1.300   1.300

     PseudoPot. # 3 for O  read from file:
     ../pseudo/O.pbe-n-kjpaw_psl.0.1.UPF
     MD5 check sum: 0234752ac141de4415c5fc33072bef88
     Pseudo is Projector augmented-wave + core cor, Zval =  6.0
     Generated using "atomic" code by A. Dal Corso  v.5.0.99 svn rev. 10869
     Shape of augmentation charge: BESSEL
     Using radial grid of 1095 points,  4 beta functions with:
                l(1) =   0
                l(2) =   0
                l(3) =   1
                l(4) =   1
     Q(r) pseudized with 0 coefficients

     atomic species   valence    mass     pseudopotential
        Mo            14.00    95.94000     Mo( 1.00)
        S              6.00    32.06500     S ( 1.00)
        O              6.00    15.99940     O ( 1.00)

     No symmetry found

   Cartesian axes

     site n.     atom                  positions (alat units)
         1           Mo  tau(   1) = (   0.6952221   0.1890506   0.2985846  )
         2           S   tau(   2) = (   0.8646417   0.0856217   0.4689279  )
         3           S   tau(   3) = (   0.8663890   0.0857843   0.1351291  )
         4           Mo  tau(   4) = (   0.8560186   0.4753274   0.2873942  )
         5           S   tau(   5) = (   0.6873294   0.3936244   0.4596353  )
         6           S   tau(   6) = (   0.6929804   0.3713468   0.1185692  )
         7           Mo  tau(   7) = (   0.6862796   0.7633098   0.2825370  )
         8           S   tau(   8) = (   0.8545980   0.6708292   0.4486168  )
         9           S   tau(   9) = (   0.8545123   0.6666874   0.1146125  )
        10           Mo  tau(  10) = (   0.8629403   1.0471007   0.3006803  )
        11           S   tau(  11) = (   0.6868280   0.9456650   0.4634891  )
        12           S   tau(  12) = (   0.6998113   0.9568511   0.1205389  )
        13           Mo  tau(  13) = (   0.3618216   0.1847309   0.2935964  )
        14           S   tau(  14) = (   0.5260962   0.0863870   0.4600448  )
        15           S   tau(  15) = (   0.5348379   0.0894875   0.1297123  )
        16           Mo  tau(  16) = (   0.5265817   0.4772436   0.2784130  )
        17           S   tau(  17) = (   0.3624753   0.3882513   0.4525556  )
        18           S   tau(  18) = (   0.3635411   0.3752055   0.1119148  )
        19           Mo  tau(  19) = (   0.3652268   0.7630864   0.2781795  )
        20           S   tau(  20) = (   0.5269494   0.6690381   0.1096838  )
        21           Mo  tau(  21) = (   0.5300192   1.0470394   0.2900995  )
        22           S   tau(  22) = (   0.3670346   0.9457522   0.4574073  )
        23           S   tau(  23) = (   0.3604225   0.9585725   0.1159032  )
        24           Mo  tau(  24) = (   0.0313099   0.1847895   0.3013130  )
        25           S   tau(  25) = (   0.1956761   0.0838230   0.4650863  )
        26           S   tau(  26) = (   0.1967693   0.0903508   0.1278874  )
        27           Mo  tau(  27) = (   0.1967578   0.4753919   0.2813011  )
        28           S   tau(  28) = (   0.0287851   0.3864324   0.4586755  )
        29           S   tau(  29) = (   0.0244514   0.3729871   0.1239344  )
        30           Mo  tau(  30) = (   0.0286728   0.7631204   0.2856894  )
        31           S   tau(  31) = (   0.2011512   0.6675435   0.4465001  )
        32           S   tau(  32) = (   0.1969214   0.6672839   0.1104564  )
        33           Mo  tau(  33) = (   0.1950294   1.0511147   0.2932237  )
        34           S   tau(  34) = (   0.0312912   0.9612169   0.4667423  )
        35           S   tau(  35) = (   0.0292670   0.9563028   0.1216485  )
        36           O   tau(  36) = (   0.7777778   0.8988550   0.5656742  )

     number of k points=     1  Gaussian smearing, width (Ry)=  0.0100
                       cart. coord. in units 2pi/alat
        k(    1) = (   0.0000000   0.0000000   0.0000000), wk =   2.0000000

     Initial potential from superposition of free atoms

     starting charge     311.9873, renormalised to     312.0000

     negative rho (up, down):  2.759E-04 0.000E+00

Carrying out rVV10 run using the following parameters:
Nqs =      20    Nr_points =    1024   r_max =   100.000
b_value =  6.30000    beta =  0.00901
     q_mesh =  0.00010000  0.00030000  0.00058939  0.00100810
               0.00161396  0.00249058  0.00375900  0.00559430
               0.00824984  0.01209221  0.01765183  0.02569619
               0.03733578  0.05417739  0.07854596  0.11380545
               0.16482331  0.23864234  0.34545298  0.50000000

Gradients computed in Reciprocal space

     Starting wfcs are  216 randomized atomic wfcs
     Checking if some PAW data can be deallocated...

     Self-consistent Calculation

     iteration #  1     ecut=    80.00 Ry     beta= 0.70
     Davidson diagonalization with overlap
     ethr =  1.00E-02,  avg # of iterations =  2.0

     Threshold (ethr) on eigenvalues was too large:
     Diagonalizing with lowered threshold

     Davidson diagonalization with overlap
     ethr =  4.60E-04,  avg # of iterations =  4.0

[...]

     total energy              =   -2246.21568351 Ry
     estimated scf accuracy    <       1.67893801 Ry

[...]

     iteration #  4     ecut=    80.00 Ry     beta= 0.70
     Davidson diagonalization with overlap
     c_bands:  1 eigenvalues not converged
     ethr =  4.11E-05,  avg # of iterations = 20.0

[...]

     End of self-consistent calculation

          k = 0.0000 0.0000 0.0000 (105382 PWs)   bands (ev):

   -63.0560 -62.9150 -62.8961 -62.8839 -62.8806 -62.8727 -62.8689 -62.8659
   -62.8177 -62.8137 -62.7018 -62.6747 -37.3380 -37.2997 -37.2370 -37.1979
   -37.1824 -37.1727 -37.1657 -37.1310 -37.1093 -37.0969 -37.0883 -37.0813
   -37.0729 -37.0658 -37.0645 -37.0513 -37.0485 -37.0405 -37.0362 -37.0223
   -36.9980 -36.9866 -36.9811 -36.9701 -36.9602 -36.9443 -36.9272 -36.9112
   -36.9041 -36.8987 -36.8604 -36.8301 -36.8192 -36.8009 -36.7772 -36.6900
   -24.7044 -15.9751 -15.2056 -15.1546 -14.9789 -14.9513 -14.7785 -14.5349
   -14.5145 -14.4786 -14.4522 -14.4038 -14.3667 -14.3363 -14.2664 -14.1603
   -14.1444 -14.1253 -14.0836 -13.9445 -13.8934 -13.8802 -13.8317 -13.4573
    -8.7631  -8.4579  -8.0777  -7.5755  -7.4767  -7.3114  -7.2830  -7.2577
    -7.1602  -7.1262  -7.0707  -6.8388  -6.8190  -6.7383  -6.6664  -6.6290
    -6.5261  -6.4574  -6.3911  -6.3090  -6.1174  -6.0972  -5.9886  -5.9037
    -5.8346  -5.8257  -5.7965  -5.7489  -5.6895  -5.6835  -5.6375  -5.5943
    -5.5598  -5.5339  -5.4604  -5.3452  -5.2841  -5.1695  -5.0609  -5.0452
    -5.0077  -4.9521  -4.9319  -4.8802  -4.7516  -4.6319  -4.4918  -4.3591
    -4.2678  -4.2145  -4.1680  -4.1227  -4.0711  -4.0273  -3.8626  -3.7978
    -3.7903  -3.7214  -3.6550  -3.6347  -3.5761  -3.5268  -3.5015  -3.4742
    -3.4341  -3.3967  -3.3182  -3.2719  -3.1512  -3.0900  -2.9808  -2.8627
    -2.7927  -2.7566  -2.7125  -2.6991  -2.6713  -2.6363  -2.4483  -2.3472
    -2.2170  -2.0373  -1.9621  -1.8926  -1.1191  -0.8439  -0.5105  -0.2314
    -0.1600  -0.1147  -0.0379   0.0130   0.1138   0.1585   0.2061   0.2487
     0.2699   0.3168   0.4132   0.4679   0.5057   0.5352   0.5566   0.6140
     0.6848   0.6929   0.7245   0.7603   0.7756   0.8367   0.9088   0.9322
     0.9413   1.0413   1.2269

     the Fermi energy is    -1.5054 ev

!    total energy              =   -2246.23606895 Ry
     estimated scf accuracy    <       0.00000084 Ry
     smearing contrib. (-TS)   =      -0.00000357 Ry
     internal energy E=F+TS    =   -2246.23606538 Ry

     The total energy is F=E-TS. E is the sum of the following terms:
[...]
     atom    3 type  2   force =     0.11042264    0.11574121  -38.31658617
     atom    4 type  1   force =     0.23142458   -0.23852793   -0.69715305
     atom    5 type  2   force =    -0.81415414    1.07915552   38.04702170
     atom    6 type  2   force =     0.21953734   -0.39338541  -38.52551420
     atom    7 type  1   force =    -2.80773292   -2.78165026   -1.80921229
     atom    8 type  2   force =    -0.54259900   -0.93844800   37.59377268
     atom    9 type  2   force =     0.49211024   -0.09486850  -38.82113275
     atom   10 type  1   force =     0.61046676    0.27492345   -1.27333398
     atom   11 type  2   force =    -0.41113034   -1.50952854   28.37305846
     atom   12 type  2   force =     0.18382118    0.28974467  -38.60437744
     atom   13 type  1   force =    -0.33246367    1.20002529    1.73573392
     atom   14 type  2   force =    -0.53544049    1.03007969   38.02318562
     atom   15 type  2   force =    -0.05784443    0.07710639  -38.30256002
     atom   16 type  1   force =    -0.37732154    2.91974732    0.70672488
     atom   17 type  2   force =     0.67831327    1.15769680   38.16104740
     atom   18 type  2   force =    -0.29523250   -0.34501692  -38.41600338
     atom   19 type  1   force =     2.08414931   -2.45218677    1.28290885
     atom   20 type  2   force =    -0.16733013   -0.09022161  -39.42784444
     atom   21 type  1   force =    -1.03476988    0.25738311   -2.97737953
     atom   22 type  2   force =    -0.60327727   -1.49093755   37.80310807
     atom   23 type  2   force =    -0.27026445    0.26964567  -38.58733695
     atom   24 type  1   force =     0.49564731    0.99065793    1.35394633
     atom   25 type  2   force =     0.16838888    0.40292753   38.59379808
     atom   26 type  2   force =    -0.05226573    0.03694955  -37.83845502
     atom   27 type  1   force =     0.15069018    0.14105592   -0.09341339
     atom   28 type  2   force =     0.11674559    0.49756698   37.96178941
     atom   29 type  2   force =     0.07871935   -0.11145560  -38.03999762
     atom   30 type  1   force =     0.69211104   -1.28466319    0.71289622
     atom   31 type  2   force =     1.12739242   -0.17905476   37.94877906
     atom   32 type  2   force =    -0.33010764   -0.08727088  -38.29803784
     atom   33 type  1   force =     0.46912388   -0.03097106    2.13476118
     atom   34 type  2   force =     1.00619008   -0.48723194   38.23291141
     atom   35 type  2   force =     0.11605398    0.12404701  -38.24847002
     atom   36 type  3   force =    -0.59020656   -1.04104452   50.10004155
     The local contribution  to forces
     atom    1 type  1   force =     0.14336448   -1.60564152   -1.20902536
     atom    2 type  2   force =    -0.32986923   -1.09458541  -38.04440047
     atom    3 type  2   force =    -0.10862159   -0.10626366   38.07343837
     atom    4 type  1   force =    -0.23945668    0.23373191    0.69559905
     atom    5 type  2   force =     0.80970686   -1.05572156  -37.81102141
     atom    6 type  2   force =    -0.22018194    0.39654294   38.27910632
     atom    7 type  1   force =     2.82334736    2.76461931    1.81690464
     atom    8 type  2   force =     0.54066654    0.93171178  -37.34344054
     atom    9 type  2   force =    -0.48487302    0.10858782   38.57415848
     atom   10 type  1   force =    -0.60164847   -0.28027859    1.25456969
     atom   11 type  2   force =     0.42626672    1.49937802  -28.66280015
     atom   12 type  2   force =    -0.17645853   -0.27578442   38.35066779
     atom   13 type  1   force =     0.32943878   -1.22588533   -1.72977651
     atom   14 type  2   force =     0.53553731   -1.02357764  -37.77132920
     atom   15 type  2   force =     0.05669336   -0.06794082   38.06100429
     atom   16 type  1   force =     0.38239972   -2.94652017   -0.67326104
     atom   17 type  2   force =    -0.67444394   -1.13647659  -37.92500792
     atom   18 type  2   force =     0.29540632    0.34683277   38.17139360
     atom   19 type  1   force =    -2.10012034    2.44756986   -1.26001294
     atom   20 type  2   force =     0.16496856    0.10338759   39.18528239
     atom   21 type  1   force =     1.02883792   -0.27221250    2.95447721
     atom   22 type  2   force =     0.60806147    1.48452774  -37.55906596
     atom   23 type  2   force =     0.26242881   -0.25395628   38.34372806
     atom   24 type  1   force =    -0.49609022   -1.00718746   -1.35662357
     atom   25 type  2   force =    -0.16913296   -0.39126519  -38.34434793
     atom   26 type  2   force =     0.05015112   -0.02472569   37.58997471
     atom   27 type  1   force =    -0.14505106   -0.14570583    0.09152401
     atom   28 type  2   force =    -0.11597716   -0.48469328  -37.70589957
     atom   29 type  2   force =    -0.07794280    0.11887079   37.79290289
     atom   30 type  1   force =    -0.69291590    1.26314049   -0.71738641
     atom   31 type  2   force =    -1.12023667    0.17558055  -37.70144695
     atom   32 type  2   force =     0.32461384    0.09878788   38.04866169
     atom   33 type  1   force =    -0.46564504    0.02497543   -2.14408212
     atom   34 type  2   force =    -1.00817393    0.49253155  -37.97564153
     atom   35 type  2   force =    -0.11553229   -0.11050770   38.00667940
     atom   36 type  3   force =     0.56170941    1.03256926  -47.80668427
     The core correction contribution to forces
     atom    1 type  1   force =     0.00000000    0.00000000    0.00000000
     atom    2 type  2   force =     0.00002826    0.00044842    0.02126407
     atom    3 type  2   force =     0.00006964    0.00049144   -0.02079643
     atom    4 type  1   force =     0.00000000    0.00000000    0.00000000
     atom    5 type  2   force =    -0.00035976    0.00112625    0.02052710
     atom    6 type  2   force =     0.00015710   -0.00032192   -0.02091403
     atom    7 type  1   force =     0.00000000    0.00000000    0.00000000
     atom    8 type  2   force =    -0.00014286   -0.00004379    0.02127689
     atom    9 type  2   force =     0.00083182    0.00083269   -0.02101523
     atom   10 type  1   force =     0.00000000    0.00000000    0.00000000
     atom   11 type  2   force =     0.00096091   -0.00084020   -0.00986145
     atom   12 type  2   force =     0.00068036    0.00097717   -0.02126085
     atom   13 type  1   force =     0.00000000    0.00000000    0.00000000
     atom   14 type  2   force =     0.00007865    0.00002662    0.02128914
     atom   15 type  2   force =    -0.00001018    0.00047567   -0.02066256
     atom   16 type  1   force =     0.00000000    0.00000000    0.00000000
     atom   17 type  2   force =     0.00036658    0.00104149    0.02052582
     atom   18 type  2   force =    -0.00017200   -0.00035595   -0.02085107
     atom   19 type  1   force =     0.00000000    0.00000000    0.00000000
     atom   20 type  2   force =    -0.00024078    0.00058908   -0.02119197
     atom   21 type  1   force =     0.00000000    0.00000000    0.00000000
     atom   22 type  2   force =     0.00016716   -0.00058207    0.02107245
     atom   23 type  2   force =    -0.00066390    0.00105965   -0.02080999
     atom   24 type  1   force =     0.00000000    0.00000000    0.00000000
     atom   25 type  2   force =    -0.00002004    0.00052740    0.02102217
     atom   26 type  2   force =    -0.00012378    0.00049404   -0.02094685
     atom   27 type  1   force =     0.00000000    0.00000000    0.00000000
     atom   28 type  2   force =    -0.00001071    0.00085904    0.02128631
     atom   29 type  2   force =     0.00003123    0.00015116   -0.02086157
     atom   30 type  1   force =     0.00000000    0.00000000    0.00000000
     atom   31 type  2   force =     0.00040132    0.00010262    0.02099472
     atom   32 type  2   force =    -0.00062569    0.00068818   -0.02101727
     atom   33 type  1   force =     0.00000000    0.00000000    0.00000000
     atom   34 type  2   force =    -0.00016583    0.00013943    0.02163874
     atom   35 type  2   force =     0.00009006    0.00074642   -0.02078477
     atom   36 type  3   force =    -0.00030009   -0.00012206    0.02456045
     The Hubbard contrib.    to forces
     atom    1 type  1   force =     0.00000000    0.00000000    0.00000000
     atom    2 type  2   force =     0.00000000    0.00000000    0.00000000
     atom    3 type  2   force =     0.00000000    0.00000000    0.00000000
     atom    4 type  1   force =     0.00000000    0.00000000    0.00000000
     atom    5 type  2   force =     0.00000000    0.00000000    0.00000000
     atom    6 type  2   force =     0.00000000    0.00000000    0.00000000
     atom    7 type  1   force =     0.00000000    0.00000000    0.00000000
     atom    8 type  2   force =     0.00000000    0.00000000    0.00000000
     atom    9 type  2   force =     0.00000000    0.00000000    0.00000000
     atom   10 type  1   force =     0.00000000    0.00000000    0.00000000
     atom   11 type  2   force =     0.00000000    0.00000000    0.00000000
     atom   12 type  2   force =     0.00000000    0.00000000    0.00000000
     atom   13 type  1   force =     0.00000000    0.00000000    0.00000000
     atom   14 type  2   force =     0.00000000    0.00000000    0.00000000
     atom   15 type  2   force =     0.00000000    0.00000000    0.00000000
     atom   16 type  1   force =     0.00000000    0.00000000    0.00000000
     atom   17 type  2   force =     0.00000000    0.00000000    0.00000000
     atom   18 type  2   force =     0.00000000    0.00000000    0.00000000
     atom   19 type  1   force =     0.00000000    0.00000000    0.00000000
     atom   20 type  2   force =     0.00000000    0.00000000    0.00000000
     atom   21 type  1   force =     0.00000000    0.00000000    0.00000000
     atom   22 type  2   force =     0.00000000    0.00000000    0.00000000
     atom   23 type  2   force =     0.00000000    0.00000000    0.00000000
     atom   24 type  1   force =     0.00000000    0.00000000    0.00000000
     atom   25 type  2   force =     0.00000000    0.00000000    0.00000000
     atom   26 type  2   force =     0.00000000    0.00000000    0.00000000
     atom   27 type  1   force =     0.00000000    0.00000000    0.00000000
     atom   28 type  2   force =     0.00000000    0.00000000    0.00000000
     atom   29 type  2   force =     0.00000000    0.00000000    0.00000000
     atom   30 type  1   force =     0.00000000    0.00000000    0.00000000
     atom   31 type  2   force =     0.00000000    0.00000000    0.00000000
     atom   32 type  2   force =     0.00000000    0.00000000    0.00000000
     atom   33 type  1   force =     0.00000000    0.00000000    0.00000000
     atom   34 type  2   force =     0.00000000    0.00000000    0.00000000
     atom   35 type  2   force =     0.00000000    0.00000000    0.00000000
     atom   36 type  3   force =     0.00000000    0.00000000    0.00000000
     The SCF correction term to forces
     atom    1 type  1   force =    -0.00000368    0.00002830   -0.00004167
     atom    2 type  2   force =     0.00000483    0.00000191   -0.00002025
     atom    3 type  2   force =     0.00000364    0.00000426   -0.00001222
     atom    4 type  1   force =     0.00001759    0.00002352   -0.00005897
     atom    5 type  2   force =    -0.00001590    0.00001857   -0.00001850
     atom    6 type  2   force =     0.00000448    0.00001681   -0.00000570
     atom    7 type  1   force =    -0.00000451   -0.00003154   -0.00004503
     atom    8 type  2   force =     0.00000960   -0.00000255   -0.00001314
     atom    9 type  2   force =     0.00001107   -0.00000505   -0.00001314
     atom   10 type  1   force =     0.00001134   -0.00002689   -0.00004519
     atom   11 type  2   force =    -0.00000787   -0.00001441   -0.00001464
     atom   12 type  2   force =     0.00000261   -0.00000777   -0.00000858
     atom   13 type  1   force =    -0.00000377    0.00001334   -0.00001059
     atom   14 type  2   force =    -0.00001809   -0.00000090   -0.00002105
     atom   15 type  2   force =    -0.00000379    0.00000275    0.00000741
     atom   16 type  1   force =    -0.00001209    0.00002427   -0.00001715
     atom   17 type  2   force =     0.00000197    0.00001566   -0.00001372
     atom   18 type  2   force =    -0.00000457    0.00001747    0.00000440
     atom   19 type  1   force =    -0.00001410   -0.00002721   -0.00000967
     atom   20 type  2   force =    -0.00000736   -0.00001123    0.00000471
     atom   21 type  1   force =    -0.00002356   -0.00002704   -0.00000375
     atom   22 type  2   force =    -0.00000034   -0.00001031   -0.00001931
     atom   23 type  2   force =    -0.00000310   -0.00001759    0.00001455
     atom   24 type  1   force =     0.00001357    0.00002611   -0.00003838
     atom   25 type  2   force =     0.00001283   -0.00000396   -0.00001180
     atom   26 type  2   force =    -0.00000178    0.00000246    0.00000333
     atom   27 type  1   force =     0.00001700    0.00003143   -0.00003409
     atom   28 type  2   force =     0.00000624    0.00001479   -0.00002324
     atom   29 type  2   force =    -0.00000614    0.00001790   -0.00001416
     atom   30 type  1   force =     0.00001086   -0.00002606   -0.00003632
     atom   31 type  2   force =     0.00000899    0.00000360   -0.00002122
     atom   32 type  2   force =    -0.00000160   -0.00000287    0.00000571
     atom   33 type  1   force =    -0.00000465   -0.00002586   -0.00000808
     atom   34 type  2   force =     0.00001843   -0.00001456   -0.00001486
     atom   35 type  2   force =     0.00000258   -0.00001586   -0.00000354
     atom   36 type  3   force =     0.00000571   -0.00005241   -0.00000263

     Total force =     0.006750     Total SCF correction =     0.000190
     Energy error            =      9.7E-05 Ry
     Gradient error          =      2.8E-03 Ry/Bohr

     bfgs converged in  23 scf cycles and  22 bfgs steps
     (criteria: energy <  1.0E-04 Ry, force <  1.0E-02 Ry/Bohr)

     End of BFGS Geometry Optimization

     Final energy             =   -2246.4458072706 Ry

     File ./MoS2-V-O.bfgs deleted, as requested
Begin final coordinates

ATOMIC_POSITIONS (angstrom)
Mo            6.5885576765        1.7420232684        2.7602818698
S             8.1638374626        0.8402741787        4.3704520912
S             8.1683133832        0.8510326506        1.1651003265
Mo            8.1450182162        4.4912201257        2.7082121153
S             6.5484788568        3.6534866954        4.3066597215
S             6.5768445630        3.5509948263        1.1087356528
Mo            6.5393988880        7.1418431343        2.6458920722
S             8.0869320857        6.2961960644        4.3073424477
S             8.1753617083        6.3122454522        1.0952305554
Mo            8.1864754290        9.9458327303        2.7539467417
S             6.5655120659        8.9444437530        4.2328270839
S             6.6144769047        9.0262321323        1.1343341736
Mo            3.4534684722        1.7459573494        2.7623057353
S             5.0205247664        0.8023616037        4.3513516838
S             5.0154710702        0.8438612724        1.1592901394
Mo            5.0192984717        4.5192235573        2.6541373038
S             3.4918127904        3.6549782712        4.3103898990
S             3.4527381099        3.5470156089        1.1144587417
Mo            3.4978558830        7.1669570177        2.6720455122
S             5.0018735860        6.2881767184        1.0326434507
Mo            4.9996754207        9.9153981390        2.7165020266
S             3.5053173824        8.9328062073        4.3290876044
S             3.4096543256        9.0086011570        1.1267314567
Mo            0.2895642067        1.7367504235        2.7673108116
S             1.8797793609        0.8385607903        4.3733542771
S             1.8735218293        0.8244513646        1.1837313364
Mo            1.8887012917        4.4831413084        2.7153969889
S             0.2852232342        3.6010185064        4.3161594846
S             0.2913776835        3.5490746196        1.1476690657
Mo            0.2815391549        7.2056426671        2.7416492747
S             1.9272801504        6.2949812543        4.3041566329
S             1.8701113792        6.3128721193        1.1180204323
Mo            1.8784196651        9.9139820526        2.7777388729
S             0.2839654239        9.0136450746        4.3638119225
S             0.3051309148        9.0344285793        1.1683314357
O             6.5460929766        8.9514912922        5.7310338789
End final coordinates

     Writing all to output data dir ./MoS2-V-O.save/

     General routines

     Parallel routines

   This run was terminated on:  21:51:20   1Nov2023

   JOB DONE.