     Program PWSCF v.7.2 starts on  1Nov2023 at 22:26:39

     Waiting for input...
     Reading input from standard input
Warning: card &CELL ignored
Warning: card CELL_DYNAMICS = 'BFGS', ignored
Warning: card CELL_DOFREE = '2DXY' ignored
Warning: card / ignored

     Current dimensions of program PWSCF are:
     Max number of different atomic species (ntypx) = 10
     Max number of k-points (npk) =  40000
     Max angular momentum in pseudopotentials (lmaxx) =  4
     file O.pbe-n-kjpaw_psl.0.1.UPF: wavefunction(s)  2P renormalized

     IMPORTANT: XC functional enforced from input :
     Exchange-correlation= RVV10
                           (   1   4  13   4  26   0   0)
     Any further DFT definition will be discarded
     Please, verify this is what you really want

     gamma-point specific algorithms are used
     signal trapping enabled: kill the code with -SIGUSR1 to stop cleanly the simulation

     R & G space division:  proc/nbgrp/npool/nimage =      48
     Subspace diagonalization in iterative solution of the eigenvalue problem:
     one sub-group per band group will be used

     Using Slab Decomposition

     bravais-lattice index     =            0
     lattice parameter (alat)  =      17.8707  a.u.
     unit-cell volume          =   17436.2743 (a.u.)^3
     number of atoms/cell      =           36
     number of atomic types    =            3
     number of electrons       =       312.00
     number of Kohn-Sham states=          187
     kinetic-energy cutoff     =      80.0000  Ry
     charge density cutoff     =     650.0000  Ry
     scf convergence threshold =      1.0E-06
     mixing beta               =       0.7000
     number of iterations used =            8  local-TF  mixing
     energy convergence thresh.=      1.0E-04
     force convergence thresh. =      1.0E-02
     Exchange-correlation= RVV10
                           (   1   4  13   4  26   0   0)
     nstep                     =          200

     celldm(1)=  17.870686  celldm(2)=   0.000000  celldm(3)=   0.000000
     celldm(4)=   0.000000  celldm(5)=   0.000000  celldm(6)=   0.000000

     crystal axes: (cart. coord. in units of alat)
               a(1) = (   1.000000   0.000000   0.000000 )
               a(2) = (   0.000000   1.155671   0.000000 )
               a(3) = (   0.000000   0.000000   2.643601 )

     reciprocal axes: (cart. coord. in units 2 pi/alat)
               b(1) = (  1.000000  0.000000  0.000000 )
               b(2) = (  0.000000  0.865298  0.000000 )
               b(3) = (  0.000000  0.000000  0.378272 )

     PseudoPot. # 1 for Mo read from file:
     ../pseudo/Mo_ONCV_PBE-1.0.oncvpsp.upf
     MD5 check sum: 1b5d28e075c9ccadda658a603575cd1f
     Pseudo is Norm-conserving, Zval = 14.0
     Generated using ONCVPSP code by D. R. Hamann
     Using radial grid of 1526 points,  6 beta functions with:
                l(1) =   0
                l(2) =   0
                l(3) =   1
                l(4) =   1
                l(5) =   2
                l(6) =   2

     PseudoPot. # 2 for S  read from file:
     ../pseudo/s_pbe_v1.4.uspp.F.UPF
     MD5 check sum: 88d86576ff6df21479756cfb9bdac1df
     Pseudo is Ultrasoft + core correction, Zval =  6.0
     Generated by new atomic code, or converted to UPF format
     Using radial grid of  907 points,  6 beta functions with:
                l(1) =   0
                l(2) =   0
                l(3) =   1
                l(4) =   1
                l(5) =   2
                l(6) =   2
     Q(r) pseudized with  8 coefficients,  rinner =    1.300   1.300   1.300
                                                       1.300   1.300

     PseudoPot. # 3 for O  read from file:
     ../pseudo/O.pbe-n-kjpaw_psl.0.1.UPF
     MD5 check sum: 0234752ac141de4415c5fc33072bef88
     Pseudo is Projector augmented-wave + core cor, Zval =  6.0
     Generated using "atomic" code by A. Dal Corso  v.5.0.99 svn rev. 10869
     Shape of augmentation charge: BESSEL
     Using radial grid of 1095 points,  4 beta functions with:
                l(1) =   0
                l(2) =   0
                l(3) =   1
                l(4) =   1
     Q(r) pseudized with 0 coefficients

     atomic species   valence    mass     pseudopotential
        Mo            14.00    95.94000     Mo( 1.00)
        S              6.00    32.06500     S ( 1.00)
        O              6.00    15.99940     O ( 1.00)

     No symmetry found

   Cartesian axes

     site n.     atom                  positions (alat units)
         1           Mo  tau(   1) = (   0.6952221   0.1890506   0.2985846  )
         2           S   tau(   2) = (   0.8646417   0.0856217   0.4689279  )
         3           S   tau(   3) = (   0.8663890   0.0857843   0.1351291  )
         4           Mo  tau(   4) = (   0.8560186   0.4753274   0.2873942  )
         5           S   tau(   5) = (   0.6873294   0.3936244   0.4596353  )
         6           S   tau(   6) = (   0.6929804   0.3713468   0.1185692  )
         7           Mo  tau(   7) = (   0.6862796   0.7633098   0.2825370  )
         8           S   tau(   8) = (   0.8545980   0.6708292   0.4486168  )
         9           S   tau(   9) = (   0.8545123   0.6666874   0.1146125  )
        10           Mo  tau(  10) = (   0.8629403   1.0471007   0.3006803  )
        11           S   tau(  11) = (   0.6868280   0.9456650   0.4634891  )
        12           S   tau(  12) = (   0.6998113   0.9568511   0.1205389  )
        13           Mo  tau(  13) = (   0.3618216   0.1847309   0.2935964  )
        14           S   tau(  14) = (   0.5260962   0.0863870   0.4600448  )
        15           S   tau(  15) = (   0.5348379   0.0894875   0.1297123  )
        16           Mo  tau(  16) = (   0.5265817   0.4772436   0.2784130  )
        17           S   tau(  17) = (   0.3624753   0.3882513   0.4525556  )
        18           S   tau(  18) = (   0.3635411   0.3752055   0.1119148  )
        19           Mo  tau(  19) = (   0.3652268   0.7630864   0.2781795  )
        20           S   tau(  20) = (   0.5269494   0.6690381   0.1096838  )
        21           Mo  tau(  21) = (   0.5300192   1.0470394   0.2900995  )
        22           S   tau(  22) = (   0.3670346   0.9457522   0.4574073  )
        23           S   tau(  23) = (   0.3604225   0.9585725   0.1159032  )
        24           Mo  tau(  24) = (   0.0313099   0.1847895   0.3013130  )
        25           S   tau(  25) = (   0.1956761   0.0838230   0.4650863  )
        26           S   tau(  26) = (   0.1967693   0.0903508   0.1278874  )
        27           Mo  tau(  27) = (   0.1967578   0.4753919   0.2813011  )
        28           S   tau(  28) = (   0.0287851   0.3864324   0.4586755  )
        29           S   tau(  29) = (   0.0244514   0.3729871   0.1239344  )
        30           Mo  tau(  30) = (   0.0286728   0.7631204   0.2856894  )
        31           S   tau(  31) = (   0.2011512   0.6675435   0.4465001  )
        32           S   tau(  32) = (   0.1969214   0.6672839   0.1104564  )
        33           Mo  tau(  33) = (   0.1950294   1.0511147   0.2932237  )
        34           S   tau(  34) = (   0.0312912   0.9612169   0.4667423  )
        35           S   tau(  35) = (   0.0292670   0.9563028   0.1216485  )
        36           O   tau(  36) = (   1.0000000   1.0272628   0.5656742  )

     number of k points=     1  Gaussian smearing, width (Ry)=  0.0100
                       cart. coord. in units 2pi/alat
        k(    1) = (   0.0000000   0.0000000   0.0000000), wk =   2.0000000

     Initial potential from superposition of free atoms

     starting charge     311.9873, renormalised to     312.0000

     negative rho (up, down):  2.747E-04 0.000E+00

Carrying out rVV10 run using the following parameters:
Nqs =      20    Nr_points =    1024   r_max =   100.000
b_value =  6.30000    beta =  0.00901
     q_mesh =  0.00010000  0.00030000  0.00058939  0.00100810
               0.00161396  0.00249058  0.00375900  0.00559430
               0.00824984  0.01209221  0.01765183  0.02569619
               0.03733578  0.05417739  0.07854596  0.11380545
               0.16482331  0.23864234  0.34545298  0.50000000

Gradients computed in Reciprocal space

     Starting wfcs are  216 randomized atomic wfcs
     Checking if some PAW data can be deallocated...

     Self-consistent Calculation

     iteration #  1     ecut=    80.00 Ry     beta= 0.70
     Davidson diagonalization with overlap
     ethr =  1.00E-02,  avg # of iterations =  2.0

     Threshold (ethr) on eigenvalues was too large:
     Diagonalizing with lowered threshold

     Davidson diagonalization with overlap
     ethr =  5.09E-04,  avg # of iterations =  4.0

[...]

     total energy              =   -2245.87677698 Ry
     estimated scf accuracy    <       1.83362236 Ry

[...]

     iteration #  4     ecut=    80.00 Ry     beta= 0.70
     Davidson diagonalization with overlap
     c_bands:  1 eigenvalues not converged
     ethr =  3.66E-05,  avg # of iterations = 20.0

[...]

     End of self-consistent calculation

          k = 0.0000 0.0000 0.0000 (105382 PWs)   bands (ev):

   -62.8916 -62.8796 -62.8531 -62.8479 -62.8187 -62.8158 -62.8033 -62.7964
   -62.7917 -62.7856 -62.6494 -62.5118 -37.2288 -37.1723 -37.1579 -37.1470
   -37.1168 -37.0813 -37.0744 -37.0579 -37.0533 -37.0489 -37.0414 -37.0271
   -37.0235 -37.0089 -37.0024 -36.9899 -36.9807 -36.9759 -36.9715 -36.9649
   -36.9599 -36.9539 -36.9492 -36.9354 -36.9095 -36.9032 -36.8913 -36.8555
   -36.8148 -36.8078 -36.7888 -36.7694 -36.7388 -36.7229 -36.6383 -36.6248
   -28.1785 -15.9125 -15.1367 -15.1208 -14.9582 -14.8294 -14.7523 -14.4755
   -14.4712 -14.4423 -14.3746 -14.3301 -14.3186 -14.2601 -14.2380 -14.1176
   -14.1014 -14.0744 -14.0070 -13.9788 -13.8299 -13.7975 -13.7789 -13.0146
   -10.4952 -10.3779  -8.6022  -7.5593  -7.4342  -7.2451  -7.2122  -7.1647
    -7.1149  -7.0843  -7.0318  -6.7958  -6.7571  -6.7122  -6.6823  -6.5376
    -6.4690  -6.4072  -6.3437  -6.2521  -6.1798  -6.0444  -5.9086  -5.8475
    -5.8121  -5.7801  -5.7384  -5.6967  -5.6493  -5.6264  -5.5964  -5.5640
    -5.5166  -5.4307  -5.4263  -5.3333  -5.2976  -5.2370  -5.0891  -5.0346
    -4.9665  -4.9055  -4.8841  -4.7654  -4.6368  -4.5967  -4.4859  -4.4409
    -4.2995  -4.2349  -4.1449  -4.1015  -4.0631  -3.9694  -3.8251  -3.7500
    -3.7390  -3.6870  -3.6356  -3.5966  -3.5356  -3.4722  -3.4479  -3.4169
    -3.3945  -3.3563  -3.3128  -3.2665  -3.0568  -2.9376  -2.8887  -2.8290
    -2.7666  -2.7163  -2.6966  -2.6553  -2.6196  -2.6013  -2.4958  -2.3055
    -2.2017  -2.0003  -1.8911  -1.8448  -0.8514  -0.7334  -0.5460  -0.1618
    -0.0975  -0.0308  -0.0054   0.1627   0.1975   0.2541   0.3030   0.3286
     0.3949   0.4104   0.4444   0.4983   0.5895   0.5909   0.6179   0.6417
     0.6927   0.7660   0.7920   0.8063   0.8774   0.9309   0.9581   1.0196
     1.0496   1.0913   1.3461

     the Fermi energy is    -1.3475 ev

!    total energy              =   -2245.90054628 Ry
     estimated scf accuracy    <       0.00000045 Ry
     smearing contrib. (-TS)   =      -0.00000002 Ry
     internal energy E=F+TS    =   -2245.90054626 Ry

     The total energy is F=E-TS. E is the sum of the following terms:
[...]
     atom    3 type  2   force =     0.06837255    0.14896298  -38.49080642
     atom    4 type  1   force =    -0.35996497   -0.16610134   -0.04858920
     atom    5 type  2   force =    -0.94243921    1.05267129   38.17886650
     atom    6 type  2   force =     0.15996007   -0.22877587  -38.46987559
     atom    7 type  1   force =    -3.25896547   -2.52416257    1.62348089
     atom    8 type  2   force =    -1.80648574   -0.79875549   37.80783550
     atom    9 type  2   force =     0.24401578   -0.11073114  -38.56897573
     atom   10 type  1   force =    -1.40507307    0.17079139   -1.77487844
     atom   11 type  2   force =    -1.41962483   -1.42081992   37.78865353
     atom   12 type  2   force =     0.14441832    0.16693318  -38.82098529
     atom   13 type  1   force =     0.52512400    1.23724997    0.82743731
     atom   14 type  2   force =     0.00926137    0.28280026   38.09100527
     atom   15 type  2   force =    -0.01116718    0.03426242  -38.18405197
     atom   16 type  1   force =     0.01016041    3.33345568    1.58340876
     atom   17 type  2   force =     0.96408597    1.05559750   38.25883970
     atom   18 type  2   force =    -0.17968355   -0.22292762  -38.41469196
     atom   19 type  1   force =     3.28174002   -2.53000333    1.98155712
     atom   20 type  2   force =    -0.02001180   -0.15319519  -38.83504670
     atom   21 type  1   force =     0.01700106    0.00131005   -0.85746103
     atom   22 type  2   force =     1.43844313   -1.40934367   37.81227649
     atom   23 type  2   force =    -0.16342031    0.14035456  -38.75602773
     atom   24 type  1   force =     0.00081098    1.40986308    0.74237887
     atom   25 type  2   force =     0.74190961    1.12253762   38.12671160
     atom   26 type  2   force =    -0.05434503    0.14968425  -38.45021027
     atom   27 type  1   force =     0.35287722   -0.16803909    0.49052739
     atom   28 type  2   force =    -0.01785291    0.41249152   37.92174955
     atom   29 type  2   force =     0.02371367   -0.01015937  -37.89221306
     atom   30 type  1   force =     0.00138924   -1.81736058   -1.17667857
     atom   31 type  2   force =     1.78552323   -0.79868342   37.88884429
     atom   32 type  2   force =    -0.22641997   -0.11202646  -38.47560402
     atom   33 type  1   force =     1.39372147    0.18069121   -1.66453560
     atom   34 type  2   force =    -0.01271070   -0.56818346   28.67733353
     atom   35 type  2   force =     0.01345435    0.01684051  -38.14726659
     atom   36 type  3   force =    -0.01273177   -0.23971522   50.44975919
     The local contribution  to forces
     atom    1 type  1   force =     0.53731443   -1.27619312   -0.65607220
     atom    2 type  2   force =     0.75056988   -1.09855579  -37.86732209
     atom    3 type  2   force =    -0.06534921   -0.13888759   38.24707613
     atom    4 type  1   force =     0.35887701    0.16236970    0.04635039
     atom    5 type  2   force =     0.93814105   -1.03144831  -37.94313000
     atom    6 type  2   force =    -0.15991021    0.23311672   38.22528743
     atom    7 type  1   force =     3.27430804    2.51880990   -1.60129015
     atom    8 type  2   force =     1.79699361    0.79441086  -37.55819920
     atom    9 type  2   force =    -0.23806708    0.12287466   38.32107897
     atom   10 type  1   force =     1.39346939   -0.16847311    1.75451800
     atom   11 type  2   force =     1.41607483    1.41915948  -37.54578473
     atom   12 type  2   force =    -0.13672332   -0.15510974   38.58001296
     atom   13 type  1   force =    -0.52843836   -1.26145339   -0.82324384
     atom   14 type  2   force =    -0.00898056   -0.27261716  -37.83888269
     atom   15 type  2   force =     0.01121279   -0.02248780   37.94035702
     atom   16 type  1   force =    -0.01031195   -3.36711803   -1.54800011
     atom   17 type  2   force =    -0.95933409   -1.03492592  -38.02329147
     atom   18 type  2   force =     0.17925320    0.22754206   38.17013179
     atom   19 type  1   force =    -3.29709746    2.52474718   -1.95912939
     atom   20 type  2   force =     0.01960281    0.16415049   38.59073146
     atom   21 type  1   force =    -0.01724651   -0.03295909    0.84562359
     atom   22 type  2   force =    -1.43440250    1.40795064  -37.56890079
     atom   23 type  2   force =     0.15546011   -0.12877115   38.51438985
     atom   24 type  1   force =    -0.00011225   -1.42296003   -0.74146007
     atom   25 type  2   force =    -0.74178096   -1.11238330  -37.87630611
     atom   26 type  2   force =     0.05140618   -0.13952957   38.20617533
     atom   27 type  1   force =    -0.35199325    0.16499234   -0.49305754
     atom   28 type  2   force =     0.01737465   -0.40216761  -37.66531311
     atom   29 type  2   force =    -0.02319426    0.01977758   37.64226330
     atom   30 type  1   force =    -0.00150384    1.78900391    1.16027346
     atom   31 type  2   force =    -1.77654958    0.79455381  -37.63917779
     atom   32 type  2   force =     0.22073797    0.12419991   38.22730720
     atom   33 type  1   force =    -1.38307120   -0.17918635    1.64384154
     atom   34 type  2   force =     0.01288435    0.56921640  -28.96362346
     atom   35 type  2   force =    -0.01326013   -0.00479810   37.89076814
     atom   36 type  3   force =     0.01221661    0.27880768  -48.15850998
     The core correction contribution to forces
     atom    1 type  1   force =     0.00000000    0.00000000    0.00000000
     atom    2 type  2   force =    -0.00006119    0.00048029    0.02125426
     atom    3 type  2   force =     0.00028593    0.00049383   -0.02085739
     atom    4 type  1   force =     0.00000000    0.00000000    0.00000000
     atom    5 type  2   force =    -0.00039751    0.00086081    0.02050481
     atom    6 type  2   force =     0.00012931   -0.00015893   -0.02089466
     atom    7 type  1   force =     0.00000000    0.00000000    0.00000000
     atom    8 type  2   force =    -0.00051693    0.00012231    0.02126244
     atom    9 type  2   force =     0.00059077    0.00073611   -0.02096045
     atom   10 type  1   force =     0.00000000    0.00000000    0.00000000
     atom   11 type  2   force =     0.00001193   -0.00023061    0.02101424
     atom   12 type  2   force =     0.00063288    0.00075113   -0.02076708
     atom   13 type  1   force =     0.00000000    0.00000000    0.00000000
     atom   14 type  2   force =     0.00000185    0.00020903    0.02113048
     atom   15 type  2   force =    -0.00003883    0.00055429   -0.02074844
     atom   16 type  1   force =     0.00000000    0.00000000    0.00000000
     atom   17 type  2   force =     0.00048337    0.00083781    0.02052020
     atom   18 type  2   force =    -0.00017849   -0.00010616   -0.02088839
     atom   19 type  1   force =     0.00000000    0.00000000    0.00000000
     atom   20 type  2   force =    -0.00005989    0.00055483   -0.02125683
     atom   21 type  1   force =     0.00000000    0.00000000    0.00000000
     atom   22 type  2   force =    -0.00002545   -0.00017261    0.02100324
     atom   23 type  2   force =    -0.00064863    0.00074147   -0.02074642
     atom   24 type  1   force =     0.00000000    0.00000000    0.00000000
     atom   25 type  2   force =     0.00003979    0.00046554    0.02124027
     atom   26 type  2   force =    -0.00027933    0.00049151   -0.02084715
     atom   27 type  1   force =     0.00000000    0.00000000    0.00000000
     atom   28 type  2   force =    -0.00006708    0.00071803    0.02127216
     atom   29 type  2   force =     0.00006194    0.00038199   -0.02088101
     atom   30 type  1   force =     0.00000000    0.00000000    0.00000000
     atom   31 type  2   force =     0.00044456    0.00018226    0.02127961
     atom   32 type  2   force =    -0.00053748    0.00066080   -0.02095861
     atom   33 type  1   force =     0.00000000    0.00000000    0.00000000
     atom   34 type  2   force =     0.00000438   -0.00004496   -0.00971493
     atom   35 type  2   force =     0.00002585    0.00054695   -0.02130789
     atom   36 type  3   force =    -0.00000418    0.00043085    0.02457669
     The Hubbard contrib.    to forces
     atom    1 type  1   force =     0.00000000    0.00000000    0.00000000
     atom    2 type  2   force =     0.00000000    0.00000000    0.00000000
     atom    3 type  2   force =     0.00000000    0.00000000    0.00000000
     atom    4 type  1   force =     0.00000000    0.00000000    0.00000000
     atom    5 type  2   force =     0.00000000    0.00000000    0.00000000
     atom    6 type  2   force =     0.00000000    0.00000000    0.00000000
     atom    7 type  1   force =     0.00000000    0.00000000    0.00000000
     atom    8 type  2   force =     0.00000000    0.00000000    0.00000000
     atom    9 type  2   force =     0.00000000    0.00000000    0.00000000
     atom   10 type  1   force =     0.00000000    0.00000000    0.00000000
     atom   11 type  2   force =     0.00000000    0.00000000    0.00000000
     atom   12 type  2   force =     0.00000000    0.00000000    0.00000000
     atom   13 type  1   force =     0.00000000    0.00000000    0.00000000
     atom   14 type  2   force =     0.00000000    0.00000000    0.00000000
     atom   15 type  2   force =     0.00000000    0.00000000    0.00000000
     atom   16 type  1   force =     0.00000000    0.00000000    0.00000000
     atom   17 type  2   force =     0.00000000    0.00000000    0.00000000
     atom   18 type  2   force =     0.00000000    0.00000000    0.00000000
     atom   19 type  1   force =     0.00000000    0.00000000    0.00000000
     atom   20 type  2   force =     0.00000000    0.00000000    0.00000000
     atom   21 type  1   force =     0.00000000    0.00000000    0.00000000
     atom   22 type  2   force =     0.00000000    0.00000000    0.00000000
     atom   23 type  2   force =     0.00000000    0.00000000    0.00000000
     atom   24 type  1   force =     0.00000000    0.00000000    0.00000000
     atom   25 type  2   force =     0.00000000    0.00000000    0.00000000
     atom   26 type  2   force =     0.00000000    0.00000000    0.00000000
     atom   27 type  1   force =     0.00000000    0.00000000    0.00000000
     atom   28 type  2   force =     0.00000000    0.00000000    0.00000000
     atom   29 type  2   force =     0.00000000    0.00000000    0.00000000
     atom   30 type  1   force =     0.00000000    0.00000000    0.00000000
     atom   31 type  2   force =     0.00000000    0.00000000    0.00000000
     atom   32 type  2   force =     0.00000000    0.00000000    0.00000000
     atom   33 type  1   force =     0.00000000    0.00000000    0.00000000
     atom   34 type  2   force =     0.00000000    0.00000000    0.00000000
     atom   35 type  2   force =     0.00000000    0.00000000    0.00000000
     atom   36 type  3   force =     0.00000000    0.00000000    0.00000000
     The SCF correction term to forces
     atom    1 type  1   force =     0.00001291   -0.00001844   -0.00001958
     atom    2 type  2   force =     0.00001465   -0.00001520    0.00000360
     atom    3 type  2   force =    -0.00000031   -0.00000601   -0.00000668
     atom    4 type  1   force =    -0.00000901   -0.00001949   -0.00001301
     atom    5 type  2   force =    -0.00000264   -0.00000355   -0.00000116
     atom    6 type  2   force =     0.00000360   -0.00000849   -0.00000472
     atom    7 type  1   force =    -0.00001163    0.00002658   -0.00000802
     atom    8 type  2   force =    -0.00000551    0.00000697   -0.00000813
     atom    9 type  2   force =    -0.00001735    0.00000234   -0.00000554
     atom   10 type  1   force =     0.00004326   -0.00000509    0.00000323
     atom   11 type  2   force =     0.00000450    0.00000179   -0.00000976
     atom   12 type  2   force =     0.00000035    0.00000247   -0.00000340
     atom   13 type  1   force =    -0.00001177   -0.00002795   -0.00001876
     atom   14 type  2   force =    -0.00000877   -0.00000692   -0.00000453
     atom   15 type  2   force =    -0.00000750   -0.00000480   -0.00000973
     atom   16 type  1   force =    -0.00000863   -0.00000360    0.00000798
     atom   17 type  2   force =    -0.00000287   -0.00000418    0.00000093
     atom   18 type  2   force =    -0.00000237   -0.00001155    0.00000176
     atom   19 type  1   force =     0.00000643    0.00002049   -0.00000551
     atom   20 type  2   force =     0.00000207    0.00001094    0.00000551
     atom   21 type  1   force =    -0.00000100    0.00000858   -0.00001093
     atom   22 type  2   force =    -0.00000766    0.00000289   -0.00001090
     atom   23 type  2   force =    -0.00000006    0.00000229   -0.00000072
     atom   24 type  1   force =     0.00001634   -0.00003228    0.00000628
     atom   25 type  2   force =    -0.00000847   -0.00001018   -0.00000348
     atom   26 type  2   force =     0.00000208   -0.00000177    0.00000311
     atom   27 type  1   force =     0.00000567   -0.00002191   -0.00000207
     atom   28 type  2   force =     0.00000777   -0.00001172   -0.00000317
     atom   29 type  2   force =     0.00000250   -0.00001039    0.00000126
     atom   30 type  1   force =     0.00000162    0.00007181    0.00002618
     atom   31 type  2   force =     0.00001066    0.00000093   -0.00000880
     atom   32 type  2   force =     0.00001615    0.00000067    0.00000342
     atom   33 type  1   force =    -0.00004319    0.00000206    0.00001460
     atom   34 type  2   force =     0.00000105    0.00003235   -0.00002941
     atom   35 type  2   force =     0.00000091    0.00001680    0.00002171
     atom   36 type  3   force =    -0.00000288    0.00008183   -0.00003904

     Total force =     0.006702     Total SCF correction =     0.000174
     Energy error            =      8.5E-05 Ry
     Gradient error          =      1.7E-03 Ry/Bohr

     bfgs converged in  21 scf cycles and  20 bfgs steps
     (criteria: energy <  1.0E-04 Ry, force <  1.0E-02 Ry/Bohr)

     End of BFGS Geometry Optimization

     Final energy             =   -2246.4496796896 Ry

     File ./MoS2-V-O.bfgs deleted, as requested
Begin final coordinates

ATOMIC_POSITIONS (angstrom)
Mo            6.5583798838        1.7742758787        2.7413039664
S             8.1194073737        0.8686777726        4.3598901543
S             8.1390089828        0.8769994519        1.1492626810
Mo            8.1093680887        4.5178148701        2.7219112605
S             6.5163910941        3.6692129595        4.3101961230
S             6.5451738171        3.5894717760        1.1111153778
Mo            6.5135643538        7.2068316021        2.6775989753
S             8.0730617890        6.3246105393        4.3199177498
S             8.1231487630        6.3356814657        1.1152034348
Mo            8.1094503064        9.9731449613        2.7421648427
S             6.5190705033        8.9829415063        4.3151713057
S             6.5735127118        9.0352387726        1.1086636159
Mo            3.4174604692        1.7776952813        2.7445384064
S             4.9880170397        0.8329334628        4.3268049153
S             4.9849428731        0.8594032838        1.1509103422
Mo            4.9895149371        4.5528812722        2.6679009827
S             3.4666303367        3.6712185367        4.3165053699
S             3.4297200917        3.5924767352        1.1162989829
Mo            3.4633608465        7.2063766065        2.6844802091
S             4.9857698896        6.3334045942        1.0642686460
Mo            4.9882222922        9.9215407741        2.7156653945
S             3.4553999389        8.9877272672        4.3168930470
S             3.4023040303        9.0347033096        1.1148802717
Mo            0.2582042855        1.7622324626        2.7627225957
S             1.8537255442        0.8707064585        4.3608252921
S             1.8372742882        0.8784254895        1.1525677460
Mo            1.8681008297        4.5168311249        2.7316019201
S             0.2559973773        3.6222651778        4.3228472145
S             0.2629657806        3.5918002592        1.1603134999
Mo            0.2602522938        7.2003679350        2.7406122380
S             1.9001498326        6.3272685283        4.3272777556
S             1.8569577137        6.3307478407        1.1230974164
Mo            1.8672359647        9.9751365555        2.7448722406
S             0.2594068070        9.0559069384        4.2623086388
S             0.2621946922        9.0531038710        1.1842560889
O             9.7157611899        9.0854688671        5.7614741183
End final coordinates

     Writing all to output data dir ./MoS2-V-O.save/

     General routines

     Parallel routines

   This run was terminated on:  23: 3: 0   1Nov2023

   JOB DONE.