     Program PWSCF v.7.2 starts on  1Nov2023 at 17: 4: 1

     Waiting for input...
     Reading input from standard input
Warning: card &CELL ignored
Warning: card CELL_DYNAMICS = 'BFGS', ignored
Warning: card CELL_DOFREE = '2DXY' ignored
Warning: card / ignored

     Current dimensions of program PWSCF are:
     Max number of different atomic species (ntypx) = 10
     Max number of k-points (npk) =  40000
     Max angular momentum in pseudopotentials (lmaxx) =  4
     file O.pbe-n-kjpaw_psl.0.1.UPF: wavefunction(s)  2P renormalized

     IMPORTANT: XC functional enforced from input :
     Exchange-correlation= RVV10
                           (   1   4  13   4  26   0   0)
     Any further DFT definition will be discarded
     Please, verify this is what you really want

     gamma-point specific algorithms are used
     signal trapping enabled: kill the code with -SIGUSR1 to stop cleanly the simulation

     R & G space division:  proc/nbgrp/npool/nimage =      48
     Subspace diagonalization in iterative solution of the eigenvalue problem:
     one sub-group per band group will be used

     Using Slab Decomposition

     bravais-lattice index     =            0
     lattice parameter (alat)  =      17.8707  a.u.
     unit-cell volume          =   17436.2743 (a.u.)^3
     number of atoms/cell      =           36
     number of atomic types    =            3
     number of electrons       =       312.00
     number of Kohn-Sham states=          187
     kinetic-energy cutoff     =      80.0000  Ry
     charge density cutoff     =     650.0000  Ry
     scf convergence threshold =      1.0E-06
     mixing beta               =       0.7000
     number of iterations used =            8  local-TF  mixing
     energy convergence thresh.=      1.0E-04
     force convergence thresh. =      1.0E-02
     Exchange-correlation= RVV10
                           (   1   4  13   4  26   0   0)
     nstep                     =          200

     celldm(1)=  17.870686  celldm(2)=   0.000000  celldm(3)=   0.000000
     celldm(4)=   0.000000  celldm(5)=   0.000000  celldm(6)=   0.000000

     crystal axes: (cart. coord. in units of alat)
               a(1) = (   1.000000   0.000000   0.000000 )
               a(2) = (   0.000000   1.155671   0.000000 )
               a(3) = (   0.000000   0.000000   2.643601 )

     reciprocal axes: (cart. coord. in units 2 pi/alat)
               b(1) = (  1.000000  0.000000  0.000000 )
               b(2) = (  0.000000  0.865298  0.000000 )
               b(3) = (  0.000000  0.000000  0.378272 )

     PseudoPot. # 1 for Mo read from file:
     ../pseudo/Mo_ONCV_PBE-1.0.oncvpsp.upf
     MD5 check sum: 1b5d28e075c9ccadda658a603575cd1f
     Pseudo is Norm-conserving, Zval = 14.0
     Generated using ONCVPSP code by D. R. Hamann
     Using radial grid of 1526 points,  6 beta functions with:
                l(1) =   0
                l(2) =   0
                l(3) =   1
                l(4) =   1
                l(5) =   2
                l(6) =   2

     PseudoPot. # 2 for S  read from file:
     ../pseudo/s_pbe_v1.4.uspp.F.UPF
     MD5 check sum: 88d86576ff6df21479756cfb9bdac1df
     Pseudo is Ultrasoft + core correction, Zval =  6.0
     Generated by new atomic code, or converted to UPF format
     Using radial grid of  907 points,  6 beta functions with:
                l(1) =   0
                l(2) =   0
                l(3) =   1
                l(4) =   1
                l(5) =   2
                l(6) =   2
     Q(r) pseudized with  8 coefficients,  rinner =    1.300   1.300   1.300
                                                       1.300   1.300

     PseudoPot. # 3 for O  read from file:
     ../pseudo/O.pbe-n-kjpaw_psl.0.1.UPF
     MD5 check sum: 0234752ac141de4415c5fc33072bef88
     Pseudo is Projector augmented-wave + core cor, Zval =  6.0
     Generated using "atomic" code by A. Dal Corso  v.5.0.99 svn rev. 10869
     Shape of augmentation charge: BESSEL
     Using radial grid of 1095 points,  4 beta functions with:
                l(1) =   0
                l(2) =   0
                l(3) =   1
                l(4) =   1
     Q(r) pseudized with 0 coefficients

     atomic species   valence    mass     pseudopotential
        Mo            14.00    95.94000     Mo( 1.00)
        S              6.00    32.06500     S ( 1.00)
        O              6.00    15.99940     O ( 1.00)

     No symmetry found

   Cartesian axes

     site n.     atom                  positions (alat units)
         1           Mo  tau(   1) = (   0.6952221   0.1890506   0.2985846  )
         2           S   tau(   2) = (   0.8646417   0.0856217   0.4689279  )
         3           S   tau(   3) = (   0.8663890   0.0857843   0.1351291  )
         4           Mo  tau(   4) = (   0.8560186   0.4753274   0.2873942  )
         5           S   tau(   5) = (   0.6873294   0.3936244   0.4596353  )
         6           S   tau(   6) = (   0.6929804   0.3713468   0.1185692  )
         7           Mo  tau(   7) = (   0.6862796   0.7633098   0.2825370  )
         8           S   tau(   8) = (   0.8545980   0.6708292   0.4486168  )
         9           S   tau(   9) = (   0.8545123   0.6666874   0.1146125  )
        10           Mo  tau(  10) = (   0.8629403   1.0471007   0.3006803  )
        11           S   tau(  11) = (   0.6868280   0.9456650   0.4634891  )
        12           S   tau(  12) = (   0.6998113   0.9568511   0.1205389  )
        13           Mo  tau(  13) = (   0.3618216   0.1847309   0.2935964  )
        14           S   tau(  14) = (   0.5260962   0.0863870   0.4600448  )
        15           S   tau(  15) = (   0.5348379   0.0894875   0.1297123  )
        16           Mo  tau(  16) = (   0.5265817   0.4772436   0.2784130  )
        17           S   tau(  17) = (   0.3624753   0.3882513   0.4525556  )
        18           S   tau(  18) = (   0.3635411   0.3752055   0.1119148  )
        19           Mo  tau(  19) = (   0.3652268   0.7630864   0.2781795  )
        20           S   tau(  20) = (   0.5269494   0.6690381   0.1096838  )
        21           Mo  tau(  21) = (   0.5300192   1.0470394   0.2900995  )
        22           S   tau(  22) = (   0.3670346   0.9457522   0.4574073  )
        23           S   tau(  23) = (   0.3604225   0.9585725   0.1159032  )
        24           Mo  tau(  24) = (   0.0313099   0.1847895   0.3013130  )
        25           S   tau(  25) = (   0.1956761   0.0838230   0.4650863  )
        26           S   tau(  26) = (   0.1967693   0.0903508   0.1278874  )
        27           Mo  tau(  27) = (   0.1967578   0.4753919   0.2813011  )
        28           S   tau(  28) = (   0.0287851   0.3864324   0.4586755  )
        29           S   tau(  29) = (   0.0244514   0.3729871   0.1239344  )
        30           Mo  tau(  30) = (   0.0286728   0.7631204   0.2856894  )
        31           S   tau(  31) = (   0.2011512   0.6675435   0.4465001  )
        32           S   tau(  32) = (   0.1969214   0.6672839   0.1104564  )
        33           Mo  tau(  33) = (   0.1950294   1.0511147   0.2932237  )
        34           S   tau(  34) = (   0.0312912   0.9612169   0.4667423  )
        35           S   tau(  35) = (   0.0292670   0.9563028   0.1216485  )
        36           O   tau(  36) = (   0.7777778   0.5136314   0.5407634  )

     number of k points=     1  Gaussian smearing, width (Ry)=  0.0100
                       cart. coord. in units 2pi/alat
        k(    1) = (   0.0000000   0.0000000   0.0000000), wk =   2.0000000

     Initial potential from superposition of free atoms

     starting charge     311.9873, renormalised to     312.0000

     negative rho (up, down):  2.740E-04 0.000E+00

Carrying out rVV10 run using the following parameters:
Nqs =      20    Nr_points =    1024   r_max =   100.000
b_value =  6.30000    beta =  0.00901
     q_mesh =  0.00010000  0.00030000  0.00058939  0.00100810
               0.00161396  0.00249058  0.00375900  0.00559430
               0.00824984  0.01209221  0.01765183  0.02569619
               0.03733578  0.05417739  0.07854596  0.11380545
               0.16482331  0.23864234  0.34545298  0.50000000

Gradients computed in Reciprocal space

     Starting wfcs are  216 randomized atomic wfcs
     Checking if some PAW data can be deallocated...

     Self-consistent Calculation

     iteration #  1     ecut=    80.00 Ry     beta= 0.70
     Davidson diagonalization with overlap
     ethr =  1.00E-02,  avg # of iterations =  2.0

     Threshold (ethr) on eigenvalues was too large:
     Diagonalizing with lowered threshold

     Davidson diagonalization with overlap
     ethr =  4.15E-04,  avg # of iterations =  4.0

[...]

     total energy              =   -2246.18477415 Ry
     estimated scf accuracy    <       1.55246183 Ry

[...]

     End of self-consistent calculation

          k = 0.0000 0.0000 0.0000 (105382 PWs)   bands (ev):

   -62.9059 -62.8998 -62.8782 -62.8671 -62.8614 -62.8575 -62.8512 -62.8472
   -62.8286 -62.8177 -62.7629 -62.7356 -37.2671 -37.2091 -37.1796 -37.1610
   -37.1580 -37.1350 -37.1191 -37.1034 -37.1025 -37.0905 -37.0841 -37.0669
   -37.0597 -37.0548 -37.0477 -37.0362 -37.0307 -37.0262 -37.0192 -37.0159
   -37.0054 -36.9997 -36.9958 -36.9556 -36.9506 -36.9423 -36.9284 -36.9148
   -36.9095 -36.9006 -36.8766 -36.8631 -36.8365 -36.8338 -36.7973 -36.7245
   -22.6046 -15.9657 -15.7859 -15.1498 -15.0445 -14.9642 -14.8753 -14.7494
   -14.5130 -14.4769 -14.4218 -14.3682 -14.3561 -14.3238 -14.2717 -14.2316
   -14.1415 -14.1189 -14.0720 -13.9216 -13.8998 -13.8660 -13.8445 -13.6542
    -9.2400  -8.0025  -7.8700  -7.5510  -7.4348  -7.3312  -7.2479  -7.2134
    -7.1913  -7.0104  -6.9758  -6.8363  -6.7971  -6.7299  -6.6407  -6.6258
    -6.5410  -6.4521  -6.3473  -6.2834  -6.1570  -6.0411  -6.0013  -5.9255
    -5.8539  -5.7875  -5.7684  -5.7500  -5.6800  -5.6559  -5.6113  -5.5734
    -5.5323  -5.5004  -5.4716  -5.3046  -5.1925  -5.1630  -5.1078  -5.0725
    -5.0106  -4.9834  -4.9431  -4.8655  -4.7322  -4.5444  -4.4088  -4.3320
    -4.3288  -4.2252  -4.1912  -4.1201  -4.0582  -4.0151  -3.8935  -3.8059
    -3.7788  -3.7292  -3.6630  -3.6102  -3.5757  -3.5459  -3.5304  -3.4904
    -3.4503  -3.4102  -3.2938  -3.2291  -3.0601  -3.0009  -2.9181  -2.8886
    -2.8540  -2.7775  -2.7583  -2.7043  -2.6933  -2.6326  -2.5593  -2.3503
    -2.0838  -2.0102  -1.8986  -1.2124  -1.0522  -0.8601  -0.5887  -0.2010
    -0.1453  -0.1102  -0.0479   0.0271   0.0985   0.1438   0.2181   0.2360
     0.2733   0.3401   0.4279   0.4519   0.5112   0.5329   0.5620   0.6116
     0.6585   0.7075   0.7358   0.7667   0.7858   0.8701   0.8971   0.9373
     1.0024   1.1060   1.1352

     the Fermi energy is    -1.1327 ev

!    total energy              =   -2246.18668990 Ry
     estimated scf accuracy    <       0.00000049 Ry
     smearing contrib. (-TS)   =      -0.00807972 Ry
     internal energy E=F+TS    =   -2246.17861018 Ry

     The total energy is F=E-TS. E is the sum of the following terms:
     one-electron contribution =  -18492.23893725 Ry
     hartree contribution      =    9234.52988380 Ry
     xc contribution           =    -392.17480535 Ry
     ewald contribution        =    7413.57042657 Ry
[...]
     atom    3 type  2   force =     0.16092866   -0.15931098  -38.17426313
     atom    4 type  1   force =     0.91579307    0.81270163   -3.52985965
     atom    5 type  2   force =    -0.77652851    0.91532874   28.07959087
     atom    6 type  2   force =     0.20525360   -0.43836120  -38.65078324
     atom    7 type  1   force =    -2.71425230   -0.93355961    1.05536109
     atom    8 type  2   force =    -0.59681003    1.23396539   37.56406257
     atom    9 type  2   force =     0.36509872    0.16194241  -38.73818519
     atom   10 type  1   force =    -0.30247924   -0.84395184    2.37302102
     atom   11 type  2   force =    -0.47938065   -1.34711138   38.22985707
     atom   12 type  2   force =     0.21665595    0.40949633  -38.22629001
     atom   13 type  1   force =    -0.49542623    0.00910428    1.53011449
     atom   14 type  2   force =    -0.55245451   -1.05214167   38.05849405
     atom   15 type  2   force =    -0.12363966   -0.22490468  -38.20488035
     atom   16 type  1   force =    -0.57972155    3.82029868   -2.68842255
     atom   17 type  2   force =    -0.28648680    1.13000772   37.67043551
     atom   18 type  2   force =    -0.30230610   -0.51840608  -38.87476759
     atom   19 type  1   force =     2.34078119   -1.10780743    0.33551447
     atom   20 type  2   force =     0.03440120    0.19673985  -39.63092800
     atom   21 type  1   force =    -0.20192441   -0.73415323    0.36294095
     atom   22 type  2   force =     0.37970964   -1.46643723   38.29706684
     atom   23 type  2   force =    -0.22673609    0.41976478  -38.34545809
     atom   24 type  1   force =     0.56370297   -0.11891341    1.52174137
     atom   25 type  2   force =     0.17451137   -0.25516806   38.70744247
     atom   26 type  2   force =    -0.05623056   -0.18604819  -37.77891503
     atom   27 type  1   force =    -0.09362252    0.49025738   -0.84103877
     atom   28 type  2   force =     0.95095165    0.45290014   37.47639321
     atom   29 type  2   force =     0.03972722   -0.21811131  -38.33372645
     atom   30 type  1   force =     0.28670506   -0.08560733    0.88674990
     atom   31 type  2   force =     1.15060353    0.48513342   37.86131780
     atom   32 type  2   force =    -0.39463868    0.08783378  -38.57219958
     atom   33 type  1   force =     0.42363319   -0.46086656    2.70282597
     atom   34 type  2   force =     0.15600182   -0.46778348   38.78918831
     atom   35 type  2   force =     0.06062095    0.24229290  -37.84602378
     atom   36 type  3   force =    -0.59402347    1.21907976   49.96117845
     The local contribution  to forces
     atom    1 type  1   force =     0.03085432    0.57003722    1.40444896
     atom    2 type  2   force =    -0.38212106    0.87599147  -38.13427635
     atom    3 type  2   force =    -0.15747100    0.16847866   37.92858627
     atom    4 type  1   force =    -0.90412512   -0.80981515    3.50481761
     atom    5 type  2   force =     0.76754488   -0.91991410  -28.36853325
     atom    6 type  2   force =    -0.20444089    0.44152335   38.39520415
     atom    7 type  1   force =     2.72579682    0.93311873   -1.03144042
     atom    8 type  2   force =     0.59029611   -1.23473755  -37.31544395
     atom    9 type  2   force =    -0.35924435   -0.14823712   38.48945201
     atom   10 type  1   force =     0.29394392    0.84030605   -2.37272842
     atom   11 type  2   force =     0.47366961    1.34699213  -37.98907573
     atom   12 type  2   force =    -0.20724154   -0.39486817   37.98074013
     atom   13 type  1   force =     0.49405188   -0.03407947   -1.52305903
     atom   14 type  2   force =     0.55207934    1.06114492  -37.80644800
     atom   15 type  2   force =     0.12250910    0.23430543   37.96388052
     atom   16 type  1   force =     0.56994536   -3.84062599    2.70875829
     atom   17 type  2   force =     0.28659415   -1.11426493  -37.43111993
     atom   18 type  2   force =     0.30298788    0.51903665   38.63359885
     atom   19 type  1   force =    -2.35893515    1.09521876   -0.31604020
     atom   20 type  2   force =    -0.03335234   -0.18394350   39.38976058
     atom   21 type  1   force =     0.20266580    0.70927437   -0.36656899
     atom   22 type  2   force =    -0.37443799    1.46597729  -38.05634630
     atom   23 type  2   force =     0.21915509   -0.40413063   38.10329758
     atom   24 type  1   force =    -0.56260981    0.10318526   -1.51975713
     atom   25 type  2   force =    -0.17430487    0.26430163  -38.45953674
     atom   26 type  2   force =     0.05285325    0.19447747   37.53155258
     atom   27 type  1   force =     0.09638322   -0.50069161    0.82827274
     atom   28 type  2   force =    -0.95178939   -0.44618708  -37.21896999
     atom   29 type  2   force =    -0.04065184    0.22540385   38.08949053
     atom   30 type  1   force =    -0.28668973    0.06649628   -0.89352326
     atom   31 type  2   force =    -1.14196372   -0.48568058  -37.61166395
     atom   32 type  2   force =     0.38688674   -0.07219240   38.32360030
     atom   33 type  1   force =    -0.42205355    0.45435034   -2.70475693
     atom   34 type  2   force =    -0.15467421    0.47590519  -38.53483133
     atom   35 type  2   force =    -0.06097338   -0.22720138   37.60014701
     atom   36 type  3   force =     0.56980024   -1.15998837  -47.66921418
     The core correction contribution to forces
     atom    1 type  1   force =     0.00000000    0.00000000    0.00000000
     atom    2 type  2   force =    -0.00001329    0.00043332    0.02123130
     atom    3 type  2   force =     0.00034653    0.00040214   -0.02089792
     atom    4 type  1   force =     0.00000000    0.00000000    0.00000000
     atom    5 type  2   force =    -0.00070339   -0.00039295   -0.00995206
     atom    6 type  2   force =     0.00014865   -0.00037699   -0.02128580
     atom    7 type  1   force =     0.00000000    0.00000000    0.00000000
     atom    8 type  2   force =    -0.00037906    0.00030183    0.02122999
     atom    9 type  2   force =     0.00052706    0.00082115   -0.02104336
     atom   10 type  1   force =     0.00000000    0.00000000    0.00000000
     atom   11 type  2   force =    -0.00008733   -0.00030788    0.02069800
     atom   12 type  2   force =     0.00080563    0.00100922   -0.02086961
     atom   13 type  1   force =     0.00000000    0.00000000    0.00000000
     atom   14 type  2   force =    -0.00006726    0.00020617    0.02131683
     atom   15 type  2   force =    -0.00018245    0.00045977   -0.02065878
     atom   16 type  1   force =     0.00000000    0.00000000    0.00000000
     atom   17 type  2   force =     0.00021856    0.00075536    0.02088608
     atom   18 type  2   force =    -0.00018628   -0.00051761   -0.02074168
     atom   19 type  1   force =     0.00000000    0.00000000    0.00000000
     atom   20 type  2   force =     0.00021242    0.00070297   -0.02117280
     atom   21 type  1   force =     0.00000000    0.00000000    0.00000000
     atom   22 type  2   force =     0.00015891   -0.00042447    0.02078016
     atom   23 type  2   force =    -0.00063696    0.00118332   -0.02081229
     atom   24 type  1   force =     0.00000000    0.00000000    0.00000000
     atom   25 type  2   force =     0.00010712    0.00039480    0.02098589
     atom   26 type  2   force =    -0.00016247    0.00034921   -0.02095739
     atom   27 type  1   force =     0.00000000    0.00000000    0.00000000
     atom   28 type  2   force =    -0.00007909    0.00063425    0.02154584
     atom   29 type  2   force =    -0.00006859    0.00007013   -0.02069227
     atom   30 type  1   force =     0.00000000    0.00000000    0.00000000
     atom   31 type  2   force =     0.00051082    0.00036705    0.02110248
     atom   32 type  2   force =    -0.00087105    0.00079734   -0.02100954
     atom   33 type  1   force =     0.00000000    0.00000000    0.00000000
     atom   34 type  2   force =     0.00013205    0.00021244    0.02134582
     atom   35 type  2   force =     0.00005778    0.00089266   -0.02096434
     atom   36 type  3   force =    -0.00028586    0.00062690    0.02458866
     The Hubbard contrib.    to forces
     atom    1 type  1   force =     0.00000000    0.00000000    0.00000000
     atom    2 type  2   force =     0.00000000    0.00000000    0.00000000
     atom    3 type  2   force =     0.00000000    0.00000000    0.00000000
     atom    4 type  1   force =     0.00000000    0.00000000    0.00000000
     atom    5 type  2   force =     0.00000000    0.00000000    0.00000000
     atom    6 type  2   force =     0.00000000    0.00000000    0.00000000
     atom    7 type  1   force =     0.00000000    0.00000000    0.00000000
     atom    8 type  2   force =     0.00000000    0.00000000    0.00000000
     atom    9 type  2   force =     0.00000000    0.00000000    0.00000000
     atom   10 type  1   force =     0.00000000    0.00000000    0.00000000
     atom   11 type  2   force =     0.00000000    0.00000000    0.00000000
     atom   12 type  2   force =     0.00000000    0.00000000    0.00000000
     atom   13 type  1   force =     0.00000000    0.00000000    0.00000000
     atom   14 type  2   force =     0.00000000    0.00000000    0.00000000
     atom   15 type  2   force =     0.00000000    0.00000000    0.00000000
     atom   16 type  1   force =     0.00000000    0.00000000    0.00000000
     atom   17 type  2   force =     0.00000000    0.00000000    0.00000000
     atom   18 type  2   force =     0.00000000    0.00000000    0.00000000
     atom   19 type  1   force =     0.00000000    0.00000000    0.00000000
     atom   20 type  2   force =     0.00000000    0.00000000    0.00000000
     atom   21 type  1   force =     0.00000000    0.00000000    0.00000000
     atom   22 type  2   force =     0.00000000    0.00000000    0.00000000
     atom   23 type  2   force =     0.00000000    0.00000000    0.00000000
     atom   24 type  1   force =     0.00000000    0.00000000    0.00000000
     atom   25 type  2   force =     0.00000000    0.00000000    0.00000000
     atom   26 type  2   force =     0.00000000    0.00000000    0.00000000
     atom   27 type  1   force =     0.00000000    0.00000000    0.00000000
     atom   28 type  2   force =     0.00000000    0.00000000    0.00000000
     atom   29 type  2   force =     0.00000000    0.00000000    0.00000000
     atom   30 type  1   force =     0.00000000    0.00000000    0.00000000
     atom   31 type  2   force =     0.00000000    0.00000000    0.00000000
     atom   32 type  2   force =     0.00000000    0.00000000    0.00000000
     atom   33 type  1   force =     0.00000000    0.00000000    0.00000000
     atom   34 type  2   force =     0.00000000    0.00000000    0.00000000
     atom   35 type  2   force =     0.00000000    0.00000000    0.00000000
     atom   36 type  3   force =     0.00000000    0.00000000    0.00000000
     The SCF correction term to forces
     atom    1 type  1   force =     0.00000438    0.00000461    0.00000786
     atom    2 type  2   force =     0.00001043   -0.00000779    0.00001406
     atom    3 type  2   force =     0.00000765   -0.00001463   -0.00000293
     atom    4 type  1   force =     0.00003410    0.00009872    0.00002830
     atom    5 type  2   force =    -0.00000019    0.00006584    0.00002604
     atom    6 type  2   force =     0.00000228    0.00002244   -0.00001284
     atom    7 type  1   force =     0.00001292   -0.00002725    0.00003316
     atom    8 type  2   force =    -0.00001039   -0.00000535    0.00002367
     atom    9 type  2   force =     0.00001248   -0.00000265    0.00000003
     atom   10 type  1   force =     0.00000065   -0.00006592    0.00001641
     atom   11 type  2   force =     0.00000010   -0.00003339    0.00002299
     atom   12 type  2   force =     0.00000393   -0.00002461   -0.00000487
     atom   13 type  1   force =    -0.00001706    0.00001873    0.00002924
     atom   14 type  2   force =    -0.00001016   -0.00000625    0.00001649
     atom   15 type  2   force =    -0.00000425   -0.00000990    0.00000652
     atom   16 type  1   force =    -0.00001940    0.00007563    0.00003692
     atom   17 type  2   force =    -0.00000199    0.00002272    0.00001982
     atom   18 type  2   force =    -0.00001143    0.00002825    0.00000140
     atom   19 type  1   force =    -0.00001672   -0.00001448    0.00000816
     atom   20 type  2   force =    -0.00000682    0.00000828   -0.00000261
     atom   21 type  1   force =    -0.00000123   -0.00005161    0.00000970
     atom   22 type  2   force =     0.00000219   -0.00002230    0.00001702
     atom   23 type  2   force =    -0.00000778   -0.00003137   -0.00000478
     atom   24 type  1   force =     0.00001338    0.00002907    0.00002250
     atom   25 type  2   force =    -0.00000143   -0.00000018    0.00001684
     atom   26 type  2   force =    -0.00000168   -0.00000784   -0.00000097
     atom   27 type  1   force =    -0.00000844    0.00004766    0.00001828
     atom   28 type  2   force =     0.00000051    0.00002376    0.00000959
     atom   29 type  2   force =     0.00000241    0.00003250    0.00000762
     atom   30 type  1   force =    -0.00001649   -0.00002656    0.00000503
     atom   31 type  2   force =     0.00000255    0.00000166    0.00000695
     atom   32 type  2   force =    -0.00000052    0.00001406   -0.00000221
     atom   33 type  1   force =    -0.00000403   -0.00005387    0.00001725
     atom   34 type  2   force =    -0.00000102   -0.00002107    0.00000604
     atom   35 type  2   force =     0.00000387   -0.00003282   -0.00000283
     atom   36 type  3   force =    -0.00000287    0.00015160    0.00005946

     Total force =     0.006512     Total SCF correction =     0.000289
     Energy error            =      9.4E-05 Ry
     Gradient error          =      1.7E-03 Ry/Bohr

     bfgs converged in  25 scf cycles and  24 bfgs steps
     (criteria: energy <  1.0E-04 Ry, force <  1.0E-02 Ry/Bohr)

     End of BFGS Geometry Optimization

     Final energy             =   -2246.4442057855 Ry

     File ./MoS2-V-O.bfgs deleted, as requested
Begin final coordinates

ATOMIC_POSITIONS (angstrom)
Mo            6.5939883759        1.7504290120        2.7418366290
S             8.1614869977        0.8766451651        4.3733847158
S             8.1948837012        0.8586986359        1.1680735651
Mo            8.1636384121        4.5453271651        2.6925928450
S             6.5428115434        3.6787953514        4.2040596108
S             6.5813285067        3.5862623325        1.1144104618
Mo            6.5315241686        7.2158937150        2.6601069970
S             8.0956180408        6.3383251518        4.3021752833
S             8.1532866552        6.3768131016        1.0927601620
Mo            8.1732028968        9.9666479884        2.7721405309
S             6.5443185619        8.9747632252        4.3191927533
S             6.6185751745        9.0685747988        1.1298996893
Mo            3.4579602695        1.8019638128        2.7618244565
S             5.0210768351        0.8509337293        4.3465897192
S             5.0081585595        0.8671652229        1.1594370790
Mo            4.9904862635        4.5950739611        2.6258243134
S             3.5041251058        3.7284417059        4.3085265406
S             3.4485915735        3.5910413208        1.0959515395
Mo            3.4819304081        7.2163474182        2.6396220291
S             5.0148431008        6.3674353897        1.0112648605
Mo            5.0155970800        9.9434556267        2.7292218120
S             3.4955644453        8.9667575040        4.3153023105
S             3.4206590083        9.0770439645        1.1209320422
Mo            0.2955127900        1.7787252274        2.7724909658
S             1.8915801595        0.8900496869        4.3752650248
S             1.8787239306        0.8784481486        1.1817339492
Mo            1.8940455296        4.5275120366        2.7039561753
S             0.2875133139        3.6554390522        4.3112190200
S             0.2990262170        3.5817431649        1.1351937960
Mo            0.2798579525        7.2492313118        2.7290102563
S             1.9269704832        6.3444556802        4.2869792952
S             1.8515114664        6.3601329164        1.0955062721
Mo            1.8809690739        9.9712013824        2.7732776306
S             0.2975938576        9.0501315123        4.3640944022
S             0.2993283645        9.0856862088        1.1739839721
O             6.5313159670        3.7226436725        5.7029068712
End final coordinates

     Writing all to output data dir ./MoS2-V-O.save/

     General routines

     Parallel routines

   This run was terminated on:  17:55:34   1Nov2023

   JOB DONE.