     Program PWSCF v.7.2 starts on  1Nov2023 at 20:32:26

     Waiting for input...
     Reading input from standard input
Warning: card &CELL ignored
Warning: card CELL_DYNAMICS = 'BFGS', ignored
Warning: card CELL_DOFREE = '2DXY' ignored
Warning: card / ignored

     Current dimensions of program PWSCF are:
     Max number of different atomic species (ntypx) = 10
     Max number of k-points (npk) =  40000
     Max angular momentum in pseudopotentials (lmaxx) =  4
     file O.pbe-n-kjpaw_psl.0.1.UPF: wavefunction(s)  2P renormalized

     IMPORTANT: XC functional enforced from input :
     Exchange-correlation= RVV10
                           (   1   4  13   4  26   0   0)
     Any further DFT definition will be discarded
     Please, verify this is what you really want

     gamma-point specific algorithms are used
     signal trapping enabled: kill the code with -SIGUSR1 to stop cleanly the simulation

     R & G space division:  proc/nbgrp/npool/nimage =      48
     Subspace diagonalization in iterative solution of the eigenvalue problem:
     one sub-group per band group will be used

     Using Slab Decomposition

     bravais-lattice index     =            0
     lattice parameter (alat)  =      17.8707  a.u.
     unit-cell volume          =   17436.2743 (a.u.)^3
     number of atoms/cell      =           36
     number of atomic types    =            3
     number of electrons       =       312.00
     number of Kohn-Sham states=          187
     kinetic-energy cutoff     =      80.0000  Ry
     charge density cutoff     =     650.0000  Ry
     scf convergence threshold =      1.0E-06
     mixing beta               =       0.7000
     number of iterations used =            8  local-TF  mixing
     energy convergence thresh.=      1.0E-04
     force convergence thresh. =      1.0E-02
     Exchange-correlation= RVV10
                           (   1   4  13   4  26   0   0)
     nstep                     =          200

     celldm(1)=  17.870686  celldm(2)=   0.000000  celldm(3)=   0.000000
     celldm(4)=   0.000000  celldm(5)=   0.000000  celldm(6)=   0.000000

     crystal axes: (cart. coord. in units of alat)
               a(1) = (   1.000000   0.000000   0.000000 )
               a(2) = (   0.000000   1.155671   0.000000 )
               a(3) = (   0.000000   0.000000   2.643601 )

     reciprocal axes: (cart. coord. in units 2 pi/alat)
               b(1) = (  1.000000  0.000000  0.000000 )
               b(2) = (  0.000000  0.865298  0.000000 )
               b(3) = (  0.000000  0.000000  0.378272 )

     PseudoPot. # 1 for Mo read from file:
     ../pseudo/Mo_ONCV_PBE-1.0.oncvpsp.upf
     MD5 check sum: 1b5d28e075c9ccadda658a603575cd1f
     Pseudo is Norm-conserving, Zval = 14.0
     Generated using ONCVPSP code by D. R. Hamann
     Using radial grid of 1526 points,  6 beta functions with:
                l(1) =   0
                l(2) =   0
                l(3) =   1
                l(4) =   1
                l(5) =   2
                l(6) =   2

     PseudoPot. # 2 for S  read from file:
     ../pseudo/s_pbe_v1.4.uspp.F.UPF
     MD5 check sum: 88d86576ff6df21479756cfb9bdac1df
     Pseudo is Ultrasoft + core correction, Zval =  6.0
     Generated by new atomic code, or converted to UPF format
     Using radial grid of  907 points,  6 beta functions with:
                l(1) =   0
                l(2) =   0
                l(3) =   1
                l(4) =   1
                l(5) =   2
                l(6) =   2
     Q(r) pseudized with  8 coefficients,  rinner =    1.300   1.300   1.300
                                                       1.300   1.300

     PseudoPot. # 3 for O  read from file:
     ../pseudo/O.pbe-n-kjpaw_psl.0.1.UPF
     MD5 check sum: 0234752ac141de4415c5fc33072bef88
     Pseudo is Projector augmented-wave + core cor, Zval =  6.0
     Generated using "atomic" code by A. Dal Corso  v.5.0.99 svn rev. 10869
     Shape of augmentation charge: BESSEL
     Using radial grid of 1095 points,  4 beta functions with:
                l(1) =   0
                l(2) =   0
                l(3) =   1
                l(4) =   1
     Q(r) pseudized with 0 coefficients

     atomic species   valence    mass     pseudopotential
        Mo            14.00    95.94000     Mo( 1.00)
        S              6.00    32.06500     S ( 1.00)
        O              6.00    15.99940     O ( 1.00)

     No symmetry found

   Cartesian axes

     site n.     atom                  positions (alat units)
         1           Mo  tau(   1) = (   0.6952221   0.1890506   0.2985846  )
         2           S   tau(   2) = (   0.8646417   0.0856217   0.4689279  )
         3           S   tau(   3) = (   0.8663890   0.0857843   0.1351291  )
         4           Mo  tau(   4) = (   0.8560186   0.4753274   0.2873942  )
         5           S   tau(   5) = (   0.6873294   0.3936244   0.4596353  )
         6           S   tau(   6) = (   0.6929804   0.3713468   0.1185692  )
         7           Mo  tau(   7) = (   0.6862796   0.7633098   0.2825370  )
         8           S   tau(   8) = (   0.8545980   0.6708292   0.4486168  )
         9           S   tau(   9) = (   0.8545123   0.6666874   0.1146125  )
        10           Mo  tau(  10) = (   0.8629403   1.0471007   0.3006803  )
        11           S   tau(  11) = (   0.6868280   0.9456650   0.4634891  )
        12           S   tau(  12) = (   0.6998113   0.9568511   0.1205389  )
        13           Mo  tau(  13) = (   0.3618216   0.1847309   0.2935964  )
        14           S   tau(  14) = (   0.5260962   0.0863870   0.4600448  )
        15           S   tau(  15) = (   0.5348379   0.0894875   0.1297123  )
        16           Mo  tau(  16) = (   0.5265817   0.4772436   0.2784130  )
        17           S   tau(  17) = (   0.3624753   0.3882513   0.4525556  )
        18           S   tau(  18) = (   0.3635411   0.3752055   0.1119148  )
        19           Mo  tau(  19) = (   0.3652268   0.7630864   0.2781795  )
        20           S   tau(  20) = (   0.5269494   0.6690381   0.1096838  )
        21           Mo  tau(  21) = (   0.5300192   1.0470394   0.2900995  )
        22           S   tau(  22) = (   0.3670346   0.9457522   0.4574073  )
        23           S   tau(  23) = (   0.3604225   0.9585725   0.1159032  )
        24           Mo  tau(  24) = (   0.0313099   0.1847895   0.3013130  )
        25           S   tau(  25) = (   0.1956761   0.0838230   0.4650863  )
        26           S   tau(  26) = (   0.1967693   0.0903508   0.1278874  )
        27           Mo  tau(  27) = (   0.1967578   0.4753919   0.2813011  )
        28           S   tau(  28) = (   0.0287851   0.3864324   0.4586755  )
        29           S   tau(  29) = (   0.0244514   0.3729871   0.1239344  )
        30           Mo  tau(  30) = (   0.0286728   0.7631204   0.2856894  )
        31           S   tau(  31) = (   0.2011512   0.6675435   0.4465001  )
        32           S   tau(  32) = (   0.1969214   0.6672839   0.1104564  )
        33           Mo  tau(  33) = (   0.1950294   1.0511147   0.2932237  )
        34           S   tau(  34) = (   0.0312912   0.9612169   0.4667423  )
        35           S   tau(  35) = (   0.0292670   0.9563028   0.1216485  )
        36           O   tau(  36) = (   0.3333333   0.8988550   0.5792558  )

     number of k points=     1  Gaussian smearing, width (Ry)=  0.0100
                       cart. coord. in units 2pi/alat
        k(    1) = (   0.0000000   0.0000000   0.0000000), wk =   2.0000000

     Initial potential from superposition of free atoms

     starting charge     311.9873, renormalised to     312.0000

     negative rho (up, down):  2.756E-04 0.000E+00

Carrying out rVV10 run using the following parameters:
Nqs =      20    Nr_points =    1024   r_max =   100.000
b_value =  6.30000    beta =  0.00901
     q_mesh =  0.00010000  0.00030000  0.00058939  0.00100810
               0.00161396  0.00249058  0.00375900  0.00559430
               0.00824984  0.01209221  0.01765183  0.02569619
               0.03733578  0.05417739  0.07854596  0.11380545
               0.16482331  0.23864234  0.34545298  0.50000000

Gradients computed in Reciprocal space

     Starting wfcs are  216 randomized atomic wfcs
     Checking if some PAW data can be deallocated...

     Self-consistent Calculation

     iteration #  1     ecut=    80.00 Ry     beta= 0.70
     Davidson diagonalization with overlap
     ethr =  1.00E-02,  avg # of iterations =  2.0

     Threshold (ethr) on eigenvalues was too large:
     Diagonalizing with lowered threshold

     Davidson diagonalization with overlap
     ethr =  4.52E-04,  avg # of iterations =  4.0

[...]

     total energy              =   -2246.22081128 Ry
     estimated scf accuracy    <       1.65593520 Ry

[...]

     iteration #  4     ecut=    80.00 Ry     beta= 0.70
     Davidson diagonalization with overlap
     c_bands:  1 eigenvalues not converged
     ethr =  3.35E-05,  avg # of iterations = 20.0

[...]

     End of self-consistent calculation

          k = 0.0000 0.0000 0.0000 (105382 PWs)   bands (ev):

   -62.9421 -62.9289 -62.9222 -62.9105 -62.9015 -62.8952 -62.8652 -62.8498
   -62.8347 -62.8230 -62.7636 -62.6462 -37.2763 -37.2357 -37.1941 -37.1881
   -37.1714 -37.1709 -37.1507 -37.1358 -37.1254 -37.1168 -37.1083 -37.1037
   -37.0853 -37.0819 -37.0733 -37.0677 -37.0608 -37.0496 -37.0405 -37.0117
   -37.0019 -36.9918 -36.9818 -36.9800 -36.9755 -36.9599 -36.9481 -36.9316
   -36.9171 -36.9104 -36.8759 -36.8692 -36.8422 -36.8069 -36.7686 -36.6596
   -26.2378 -15.9844 -15.2068 -15.1560 -14.9873 -14.9334 -14.8149 -14.5351
   -14.4915 -14.4744 -14.4594 -14.4113 -14.3796 -14.3570 -14.2508 -14.1729
   -14.1517 -14.1422 -14.0856 -13.9441 -13.9176 -13.8823 -13.8427 -13.3493
    -9.2286  -9.0765  -8.2720  -7.5854  -7.4763  -7.3284  -7.2843  -7.2748
    -7.1770  -7.1369  -7.0813  -6.8353  -6.8110  -6.7464  -6.6805  -6.6413
    -6.5241  -6.4676  -6.4144  -6.3176  -6.1886  -6.1424  -5.9731  -5.9136
    -5.8467  -5.8344  -5.8007  -5.7745  -5.7090  -5.6841  -5.6344  -5.6161
    -5.5736  -5.5431  -5.4697  -5.3483  -5.3066  -5.2079  -5.1395  -5.0718
    -5.0196  -4.9839  -4.9294  -4.9093  -4.7870  -4.6846  -4.5957  -4.3600
    -4.3104  -4.2798  -4.2585  -4.2035  -4.1220  -4.0126  -3.8987  -3.8319
    -3.8012  -3.7296  -3.6943  -3.6255  -3.5943  -3.5444  -3.5157  -3.4820
    -3.4343  -3.4212  -3.3596  -3.2642  -3.2438  -3.1089  -2.9780  -2.8766
    -2.8315  -2.7618  -2.7378  -2.7129  -2.6890  -2.6679  -2.5821  -2.4084
    -2.3043  -2.0200  -1.9832  -1.9415  -0.8845  -0.8156  -0.2580  -0.2010
    -0.1310  -0.1147  -0.0798   0.0175   0.1225   0.1453   0.2033   0.2562
     0.2602   0.3648   0.3970   0.4573   0.4962   0.5427   0.5926   0.6147
     0.6678   0.7040   0.7180   0.7761   0.8099   0.8520   0.9067   0.9492
     0.9898   1.0536   1.1698

     the Fermi energy is    -1.4124 ev

!    total energy              =   -2246.23772946 Ry
     estimated scf accuracy    <       0.00000060 Ry
     smearing contrib. (-TS)   =      -0.00000000 Ry
     internal energy E=F+TS    =   -2246.23772945 Ry

     The total energy is F=E-TS. E is the sum of the following terms:
[...]
     atom    3 type  2   force =     0.08537986    0.06265136  -37.85568258
     atom    4 type  1   force =    -0.15904016    0.10066894   -0.25990468
     atom    5 type  2   force =    -0.66844449    1.15444869   38.12340183
     atom    6 type  2   force =     0.29468474   -0.36728640  -38.43453724
     atom    7 type  1   force =    -2.07498586   -2.49632828    1.04579615
     atom    8 type  2   force =    -1.15334595   -0.18561310   37.91582441
     atom    9 type  2   force =     0.34144075   -0.09929229  -38.35201436
     atom   10 type  1   force =    -0.39060165   -0.03524671    2.03420355
     atom   11 type  2   force =     0.63663986   -1.51777877   37.77212177
     atom   12 type  2   force =     0.25561973    0.29387083  -38.66268516
     atom   13 type  1   force =     0.10173078    1.59496839    1.55116787
     atom   14 type  2   force =     0.54464696    1.04876302   38.05407532
     atom   15 type  2   force =     0.03812319    0.08824587  -38.26894506
     atom   16 type  1   force =     0.37257217    2.88949403    0.49372796
     atom   17 type  2   force =     0.82588962    1.07483294   38.05616965
     atom   18 type  2   force =    -0.23145211   -0.39839274  -38.47053949
     atom   19 type  1   force =     2.79705825   -2.77312249   -1.59966514
     atom   20 type  2   force =     0.12625222   -0.09096710  -39.47344281
     atom   21 type  1   force =     1.02127283    0.30453069   -3.04900381
     atom   22 type  2   force =     0.29644023   -1.47590167   28.40249428
     atom   23 type  2   force =    -0.23130913    0.27378375  -38.55344645
     atom   24 type  1   force =    -0.48401516    0.99343676    1.30466590
     atom   25 type  2   force =    -0.34502430    1.10386243   38.34477776
     atom   26 type  2   force =    -0.08968658    0.12585010  -38.26643998
     atom   27 type  1   force =    -0.23054783   -0.27004509   -0.55891788
     atom   28 type  2   force =    -0.12783508    0.48242048   37.92357522
     atom   29 type  2   force =    -0.05400210   -0.12314665  -38.03412282
     atom   30 type  1   force =    -0.61850513   -1.23288691    0.54309830
     atom   31 type  2   force =     0.51600143   -0.91675406   37.64218447
     atom   32 type  2   force =    -0.48253012   -0.09802632  -38.79156469
     atom   33 type  1   force =    -0.61824224    0.25408754   -1.01885430
     atom   34 type  2   force =    -1.00006935   -0.48607381   38.21373025
     atom   35 type  2   force =    -0.08216284    0.12604103  -38.25320451
     atom   36 type  3   force =     0.62848648   -1.07958803   50.10597713
     The local contribution  to forces
     atom    1 type  1   force =    -0.29844935   -1.29327753   -1.78157007
     atom    2 type  2   force =     0.14344779   -0.39444368  -38.33892087
     atom    3 type  2   force =    -0.08296112   -0.05033307   37.60723558
     atom    4 type  1   force =     0.15333655   -0.10586024    0.25779067
     atom    5 type  2   force =     0.66463980   -1.13291878  -37.88720213
     atom    6 type  2   force =    -0.29499871    0.36874495   38.18987142
     atom    7 type  1   force =     2.08906583    2.49047903   -1.02303996
     atom    8 type  2   force =     1.14572159    0.18221745  -37.66857648
     atom    9 type  2   force =    -0.33599039    0.11063331   38.10245824
     atom   10 type  1   force =     0.38880593    0.02857658   -2.04362410
     atom   11 type  2   force =    -0.64119143    1.51091770  -37.52802112
     atom   12 type  2   force =    -0.24788565   -0.27807866   38.41945165
     atom   13 type  1   force =    -0.10506703   -1.61444157   -1.54403186
     atom   14 type  2   force =    -0.54447575   -1.04209570  -37.80235642
     atom   15 type  2   force =    -0.03720413   -0.07886915   38.02743996
     atom   16 type  1   force =    -0.37786791   -2.91726722   -0.45970956
     atom   17 type  2   force =    -0.82124527   -1.05117591  -37.82006750
     atom   18 type  2   force =     0.23158256    0.40160518   38.22373266
     atom   19 type  1   force =    -2.81267625    2.75678940    1.60739093
     atom   20 type  2   force =    -0.12461346    0.10403281   39.23135256
     atom   21 type  1   force =    -1.01268906   -0.31678390    3.02547513
     atom   22 type  2   force =    -0.31399372    1.46560055  -28.69241432
     atom   23 type  2   force =     0.22355986   -0.26003543   38.29976461
     atom   24 type  1   force =     0.48566668   -1.00961071   -1.30736293
     atom   25 type  2   force =     0.34294728   -1.09325721  -38.09392553
     atom   26 type  2   force =     0.08841306   -0.11646313   38.02341452
     atom   27 type  1   force =     0.23772430    0.26547973    0.55722013
     atom   28 type  2   force =     0.12659935   -0.46966678  -37.66702276
     atom   29 type  2   force =     0.05353652    0.13065825   37.78658969
     atom   30 type  1   force =     0.61889589    1.21251223   -0.54723288
     atom   31 type  2   force =    -0.51438734    0.91030761  -37.39255969
     atom   32 type  2   force =     0.47558688    0.11172519   38.54448544
     atom   33 type  1   force =     0.61050515   -0.26026480    1.00064692
     atom   34 type  2   force =     1.00164788    0.49115343  -37.95660279
     atom   35 type  2   force =     0.08221933   -0.11254628   38.01173698
     atom   36 type  3   force =    -0.57975004    1.05881315  -47.81187660
     The core correction contribution to forces
     atom    1 type  1   force =     0.00000000    0.00000000    0.00000000
     atom    2 type  2   force =     0.00004132    0.00052902    0.02101963
     atom    3 type  2   force =     0.00008346    0.00047713   -0.02095050
     atom    4 type  1   force =     0.00000000    0.00000000    0.00000000
     atom    5 type  2   force =    -0.00034711    0.00108590    0.02051996
     atom    6 type  2   force =     0.00019689   -0.00039596   -0.02084621
     atom    7 type  1   force =     0.00000000    0.00000000    0.00000000
     atom    8 type  2   force =    -0.00038335    0.00011385    0.02100494
     atom    9 type  2   force =     0.00063047    0.00067468   -0.02100589
     atom   10 type  1   force =     0.00000000    0.00000000    0.00000000
     atom   11 type  2   force =    -0.00020839   -0.00057419    0.02107064
     atom   12 type  2   force =     0.00063380    0.00106412   -0.02082048
     atom   13 type  1   force =     0.00000000    0.00000000    0.00000000
     atom   14 type  2   force =    -0.00001512   -0.00004614    0.02130081
     atom   15 type  2   force =    -0.00001671    0.00049504   -0.02065559
     atom   16 type  1   force =     0.00000000    0.00000000    0.00000000
     atom   17 type  2   force =     0.00045249    0.00119387    0.02052242
     atom   18 type  2   force =    -0.00018810   -0.00041409   -0.02089215
     atom   19 type  1   force =     0.00000000    0.00000000    0.00000000
     atom   20 type  2   force =     0.00018837    0.00062676   -0.02121445
     atom   21 type  1   force =     0.00000000    0.00000000    0.00000000
     atom   22 type  2   force =    -0.00107741   -0.00075224   -0.00985158
     atom   23 type  2   force =    -0.00070064    0.00099789   -0.02125088
     atom   24 type  1   force =     0.00000000    0.00000000    0.00000000
     atom   25 type  2   force =    -0.00005851    0.00049900    0.02127183
     atom   26 type  2   force =    -0.00003676    0.00047943   -0.02080536
     atom   27 type  1   force =     0.00000000    0.00000000    0.00000000
     atom   28 type  2   force =    -0.00001042    0.00087527    0.02127535
     atom   29 type  2   force =     0.00004142    0.00017033   -0.02086470
     atom   30 type  1   force =     0.00000000    0.00000000    0.00000000
     atom   31 type  2   force =     0.00005764   -0.00005296    0.02130650
     atom   32 type  2   force =    -0.00079285    0.00082432   -0.02100013
     atom   33 type  1   force =     0.00000000    0.00000000    0.00000000
     atom   34 type  2   force =     0.00008154    0.00009027    0.02161330
     atom   35 type  2   force =    -0.00007052    0.00081442   -0.02079456
     atom   36 type  3   force =     0.00052924   -0.00026542    0.02455749
     The Hubbard contrib.    to forces
     atom    1 type  1   force =     0.00000000    0.00000000    0.00000000
     atom    2 type  2   force =     0.00000000    0.00000000    0.00000000
     atom    3 type  2   force =     0.00000000    0.00000000    0.00000000
     atom    4 type  1   force =     0.00000000    0.00000000    0.00000000
     atom    5 type  2   force =     0.00000000    0.00000000    0.00000000
     atom    6 type  2   force =     0.00000000    0.00000000    0.00000000
     atom    7 type  1   force =     0.00000000    0.00000000    0.00000000
     atom    8 type  2   force =     0.00000000    0.00000000    0.00000000
     atom    9 type  2   force =     0.00000000    0.00000000    0.00000000
     atom   10 type  1   force =     0.00000000    0.00000000    0.00000000
     atom   11 type  2   force =     0.00000000    0.00000000    0.00000000
     atom   12 type  2   force =     0.00000000    0.00000000    0.00000000
     atom   13 type  1   force =     0.00000000    0.00000000    0.00000000
     atom   14 type  2   force =     0.00000000    0.00000000    0.00000000
     atom   15 type  2   force =     0.00000000    0.00000000    0.00000000
     atom   16 type  1   force =     0.00000000    0.00000000    0.00000000
     atom   17 type  2   force =     0.00000000    0.00000000    0.00000000
     atom   18 type  2   force =     0.00000000    0.00000000    0.00000000
     atom   19 type  1   force =     0.00000000    0.00000000    0.00000000
     atom   20 type  2   force =     0.00000000    0.00000000    0.00000000
     atom   21 type  1   force =     0.00000000    0.00000000    0.00000000
     atom   22 type  2   force =     0.00000000    0.00000000    0.00000000
     atom   23 type  2   force =     0.00000000    0.00000000    0.00000000
     atom   24 type  1   force =     0.00000000    0.00000000    0.00000000
     atom   25 type  2   force =     0.00000000    0.00000000    0.00000000
     atom   26 type  2   force =     0.00000000    0.00000000    0.00000000
     atom   27 type  1   force =     0.00000000    0.00000000    0.00000000
     atom   28 type  2   force =     0.00000000    0.00000000    0.00000000
     atom   29 type  2   force =     0.00000000    0.00000000    0.00000000
     atom   30 type  1   force =     0.00000000    0.00000000    0.00000000
     atom   31 type  2   force =     0.00000000    0.00000000    0.00000000
     atom   32 type  2   force =     0.00000000    0.00000000    0.00000000
     atom   33 type  1   force =     0.00000000    0.00000000    0.00000000
     atom   34 type  2   force =     0.00000000    0.00000000    0.00000000
     atom   35 type  2   force =     0.00000000    0.00000000    0.00000000
     atom   36 type  3   force =     0.00000000    0.00000000    0.00000000
     The SCF correction term to forces
     atom    1 type  1   force =     0.00000330    0.00003507   -0.00000528
     atom    2 type  2   force =    -0.00001451    0.00000565   -0.00000630
     atom    3 type  2   force =    -0.00000454    0.00000885   -0.00000127
     atom    4 type  1   force =    -0.00001884    0.00002030   -0.00003542
     atom    5 type  2   force =    -0.00000985    0.00000880   -0.00001120
     atom    6 type  2   force =    -0.00000415    0.00001485   -0.00000331
     atom    7 type  1   force =    -0.00002647   -0.00003292   -0.00002374
     atom    8 type  2   force =    -0.00000282    0.00000713   -0.00001523
     atom    9 type  2   force =     0.00000180   -0.00000117   -0.00000206
     atom   10 type  1   force =     0.00000404   -0.00003151   -0.00000925
     atom   11 type  2   force =    -0.00000251   -0.00002014   -0.00000184
     atom   12 type  2   force =     0.00000491   -0.00003049   -0.00000140
     atom   13 type  1   force =     0.00001839    0.00004248   -0.00002499
     atom   14 type  2   force =     0.00000576    0.00001917   -0.00000195
     atom   15 type  2   force =    -0.00000429    0.00002367   -0.00000314
     atom   16 type  1   force =    -0.00001224    0.00002186   -0.00001185
     atom   17 type  2   force =     0.00001438    0.00001400   -0.00001251
     atom   18 type  2   force =     0.00000825    0.00001592   -0.00000498
     atom   19 type  1   force =     0.00000592   -0.00003271   -0.00002788
     atom   20 type  2   force =    -0.00001006   -0.00000135    0.00000406
     atom   21 type  1   force =     0.00000462   -0.00003939    0.00000752
     atom   22 type  2   force =     0.00000947   -0.00003538   -0.00000537
     atom   23 type  2   force =    -0.00000108   -0.00003131   -0.00000859
     atom   24 type  1   force =    -0.00000569    0.00003504   -0.00001685
     atom   25 type  2   force =     0.00000359    0.00001302   -0.00000836
     atom   26 type  2   force =     0.00000342    0.00000903   -0.00001004
     atom   27 type  1   force =     0.00000768    0.00004143   -0.00003466
     atom   28 type  2   force =     0.00000041    0.00000984   -0.00001130
     atom   29 type  2   force =     0.00000163    0.00001607   -0.00001402
     atom   30 type  1   force =     0.00000315   -0.00003609   -0.00003262
     atom   31 type  2   force =     0.00001398    0.00000781   -0.00001866
     atom   32 type  2   force =     0.00000949   -0.00000105   -0.00000103
     atom   33 type  1   force =     0.00001059   -0.00003945   -0.00002232
     atom   34 type  2   force =    -0.00000729   -0.00001656   -0.00000987
     atom   35 type  2   force =    -0.00000055   -0.00002125   -0.00000549
     atom   36 type  3   force =     0.00000225   -0.00007298   -0.00001166

     Total force =     0.006359     Total SCF correction =     0.000195
     Energy error            =      8.3E-05 Ry
     Gradient error          =      2.6E-03 Ry/Bohr

     bfgs converged in  20 scf cycles and  19 bfgs steps
     (criteria: energy <  1.0E-04 Ry, force <  1.0E-02 Ry/Bohr)

     End of BFGS Geometry Optimization

     Final energy             =   -2246.4457604118 Ry

     File ./MoS2-V-O.bfgs deleted, as requested
Begin final coordinates

ATOMIC_POSITIONS (angstrom)
Mo            6.5490892517        1.7452151247        2.7664158842
S             8.1210804831        0.8382693750        4.3755506828
S             8.1242291132        0.8239394690        1.1862529744
Mo            8.1194991202        4.4844986211        2.7155363803
S             6.5168567796        3.6587018377        4.3112940889
S             6.5554288859        3.5462306280        1.1157994132
Mo            6.5112631528        7.1686224267        2.6704723320
S             8.0835867851        6.2963472392        4.3043620161
S             8.1396243894        6.3137618901        1.1182086445
Mo            8.1207778371        9.9146274944        2.7788794557
S             6.4952434700        8.9320350611        4.3290266726
S             6.5915563343        9.0087938855        1.1249779449
Mo            3.4166593588        1.7417233900        2.7696708410
S             4.9853260684        0.7965421857        4.3582511822
S             4.9852539713        0.8430645734        1.1652948133
Mo            4.9901670322        4.5217793964        2.6541717813
S             3.4656026691        3.6585926627        4.3116231940
S             3.4309437448        3.5452060334        1.1167774050
Mo            3.4671580102        7.1396911655        2.6533239224
S             5.0045540748        6.2912089881        1.0318394317
Mo            5.0006166204        9.9120084306        2.7196137364
S             3.4397512823        8.9449471502        4.2390793302
S             3.3863264919        9.0269737117        1.1420520505
Mo            0.2555982826        1.7360041331        2.7702293201
S             1.8375089578        0.8434713715        4.3782505445
S             1.8357158411        0.8507837127        1.1717952394
Mo            1.8641414659        4.4907594574        2.7145701585
S             0.2639552545        3.6020225925        4.3165417287
S             0.2625775241        3.5491206527        1.1511985549
Mo            0.2686221432        7.2059285685        2.7422491629
S             1.9161305511        6.2947855148        4.3158668062
S             1.8345450538        6.3111234867        1.1018242564
Mo            1.8146484405        9.9474886742        2.7615676457
S             0.2574691288        9.0123484922        4.3656335556
S             0.2409739746        9.0396426332        1.1698119134
O             3.4721188008        8.9449419362        5.7367484731
End final coordinates

     Writing all to output data dir ./MoS2-V-O.save/

     General routines

     Parallel routines

   This run was terminated on:  21: 7:54   1Nov2023

   JOB DONE.