     Program PWSCF v.7.2 starts on  1Nov2023 at 12:56: 7

     Waiting for input...
     Reading input from standard input
Warning: card &CELL ignored
Warning: card CELL_DYNAMICS = 'BFGS', ignored
Warning: card CELL_DOFREE = '2DXY' ignored
Warning: card / ignored

     Current dimensions of program PWSCF are:
     Max number of different atomic species (ntypx) = 10
     Max number of k-points (npk) =  40000
     Max angular momentum in pseudopotentials (lmaxx) =  4
     file O.pbe-n-kjpaw_psl.0.1.UPF: wavefunction(s)  2P renormalized

     IMPORTANT: XC functional enforced from input :
     Exchange-correlation= RVV10
                           (   1   4  13   4  26   0   0)
     Any further DFT definition will be discarded
     Please, verify this is what you really want

     gamma-point specific algorithms are used
     signal trapping enabled: kill the code with -SIGUSR1 to stop cleanly the simulation

     R & G space division:  proc/nbgrp/npool/nimage =      48
     Subspace diagonalization in iterative solution of the eigenvalue problem:
     one sub-group per band group will be used

     Using Slab Decomposition

     bravais-lattice index     =            0
     lattice parameter (alat)  =      17.8707  a.u.
     unit-cell volume          =   17436.2743 (a.u.)^3
     number of atoms/cell      =           36
     number of atomic types    =            3
     number of electrons       =       312.00
     number of Kohn-Sham states=          187
     kinetic-energy cutoff     =      80.0000  Ry
     charge density cutoff     =     650.0000  Ry
     scf convergence threshold =      1.0E-06
     mixing beta               =       0.7000
     number of iterations used =            8  local-TF  mixing
     energy convergence thresh.=      1.0E-04
     force convergence thresh. =      1.0E-02
     Exchange-correlation= RVV10
                           (   1   4  13   4  26   0   0)
     nstep                     =          200

     celldm(1)=  17.870686  celldm(2)=   0.000000  celldm(3)=   0.000000
     celldm(4)=   0.000000  celldm(5)=   0.000000  celldm(6)=   0.000000

     crystal axes: (cart. coord. in units of alat)
               a(1) = (   1.000000   0.000000   0.000000 )
               a(2) = (   0.000000   1.155671   0.000000 )
               a(3) = (   0.000000   0.000000   2.643601 )

     reciprocal axes: (cart. coord. in units 2 pi/alat)
               b(1) = (  1.000000  0.000000  0.000000 )
               b(2) = (  0.000000  0.865298  0.000000 )
               b(3) = (  0.000000  0.000000  0.378272 )

     PseudoPot. # 1 for Mo read from file:
     ../pseudo/Mo_ONCV_PBE-1.0.oncvpsp.upf
     MD5 check sum: 1b5d28e075c9ccadda658a603575cd1f
     Pseudo is Norm-conserving, Zval = 14.0
     Generated using ONCVPSP code by D. R. Hamann
     Using radial grid of 1526 points,  6 beta functions with:
                l(1) =   0
                l(2) =   0
                l(3) =   1
                l(4) =   1
                l(5) =   2
                l(6) =   2

     PseudoPot. # 2 for S  read from file:
     ../pseudo/s_pbe_v1.4.uspp.F.UPF
     MD5 check sum: 88d86576ff6df21479756cfb9bdac1df
     Pseudo is Ultrasoft + core correction, Zval =  6.0
     Generated by new atomic code, or converted to UPF format
     Using radial grid of  907 points,  6 beta functions with:
                l(1) =   0
                l(2) =   0
                l(3) =   1
                l(4) =   1
                l(5) =   2
                l(6) =   2
     Q(r) pseudized with  8 coefficients,  rinner =    1.300   1.300   1.300
                                                       1.300   1.300

     PseudoPot. # 3 for O  read from file:
     ../pseudo/O.pbe-n-kjpaw_psl.0.1.UPF
     MD5 check sum: 0234752ac141de4415c5fc33072bef88
     Pseudo is Projector augmented-wave + core cor, Zval =  6.0
     Generated using "atomic" code by A. Dal Corso  v.5.0.99 svn rev. 10869
     Shape of augmentation charge: BESSEL
     Using radial grid of 1095 points,  4 beta functions with:
                l(1) =   0
                l(2) =   0
                l(3) =   1
                l(4) =   1
     Q(r) pseudized with 0 coefficients

     atomic species   valence    mass     pseudopotential
        Mo            14.00    95.94000     Mo( 1.00)
        S              6.00    32.06500     S ( 1.00)
        O              6.00    15.99940     O ( 1.00)

     No symmetry found

   Cartesian axes

     site n.     atom                  positions (alat units)
         1           Mo  tau(   1) = (   0.6952221   0.1890506   0.2985846  )
         2           S   tau(   2) = (   0.8646417   0.0856217   0.4689279  )
         3           S   tau(   3) = (   0.8663890   0.0857843   0.1351291  )
         4           Mo  tau(   4) = (   0.8560186   0.4753274   0.2873942  )
         5           S   tau(   5) = (   0.6873294   0.3936244   0.4596353  )
         6           S   tau(   6) = (   0.6929804   0.3713468   0.1185692  )
         7           Mo  tau(   7) = (   0.6862796   0.7633098   0.2825370  )
         8           S   tau(   8) = (   0.8545980   0.6708292   0.4486168  )
         9           S   tau(   9) = (   0.8545123   0.6666874   0.1146125  )
        10           Mo  tau(  10) = (   0.8629403   1.0471007   0.3006803  )
        11           S   tau(  11) = (   0.6868280   0.9456650   0.4634891  )
        12           S   tau(  12) = (   0.6998113   0.9568511   0.1205389  )
        13           Mo  tau(  13) = (   0.3618216   0.1847309   0.2935964  )
        14           S   tau(  14) = (   0.5260962   0.0863870   0.4600448  )
        15           S   tau(  15) = (   0.5348379   0.0894875   0.1297123  )
        16           Mo  tau(  16) = (   0.5265817   0.4772436   0.2784130  )
        17           S   tau(  17) = (   0.3624753   0.3882513   0.4525556  )
        18           S   tau(  18) = (   0.3635411   0.3752055   0.1119148  )
        19           Mo  tau(  19) = (   0.3652268   0.7630864   0.2781795  )
        20           S   tau(  20) = (   0.5269494   0.6690381   0.1096838  )
        21           Mo  tau(  21) = (   0.5300192   1.0470394   0.2900995  )
        22           S   tau(  22) = (   0.3670346   0.9457522   0.4574073  )
        23           S   tau(  23) = (   0.3604225   0.9585725   0.1159032  )
        24           Mo  tau(  24) = (   0.0313099   0.1847895   0.3013130  )
        25           S   tau(  25) = (   0.1956761   0.0838230   0.4650863  )
        26           S   tau(  26) = (   0.1967693   0.0903508   0.1278874  )
        27           Mo  tau(  27) = (   0.1967578   0.4753919   0.2813011  )
        28           S   tau(  28) = (   0.0287851   0.3864324   0.4586755  )
        29           S   tau(  29) = (   0.0244514   0.3729871   0.1239344  )
        30           Mo  tau(  30) = (   0.0286728   0.7631204   0.2856894  )
        31           S   tau(  31) = (   0.2011512   0.6675435   0.4465001  )
        32           S   tau(  32) = (   0.1969214   0.6672839   0.1104564  )
        33           Mo  tau(  33) = (   0.1950294   1.0511147   0.2932237  )
        34           S   tau(  34) = (   0.0312912   0.9612169   0.4667423  )
        35           S   tau(  35) = (   0.0292670   0.9563028   0.1216485  )
        36           O   tau(  36) = (   0.8888889   0.1284079   0.5407634  )

     number of k points=     1  Gaussian smearing, width (Ry)=  0.0100
                       cart. coord. in units 2pi/alat
        k(    1) = (   0.0000000   0.0000000   0.0000000), wk =   2.0000000

     Initial potential from superposition of free atoms

     starting charge     311.9873, renormalised to     312.0000

     negative rho (up, down):  2.738E-04 0.000E+00

Carrying out rVV10 run using the following parameters:
Nqs =      20    Nr_points =    1024   r_max =   100.000
b_value =  6.30000    beta =  0.00901
     q_mesh =  0.00010000  0.00030000  0.00058939  0.00100810
               0.00161396  0.00249058  0.00375900  0.00559430
               0.00824984  0.01209221  0.01765183  0.02569619
               0.03733578  0.05417739  0.07854596  0.11380545
               0.16482331  0.23864234  0.34545298  0.50000000

Gradients computed in Reciprocal space

     Starting wfcs are  216 randomized atomic wfcs
     Checking if some PAW data can be deallocated...

     Self-consistent Calculation

     iteration #  1     ecut=    80.00 Ry     beta= 0.70
     Davidson diagonalization with overlap
     ethr =  1.00E-02,  avg # of iterations =  3.0

     Threshold (ethr) on eigenvalues was too large:
     Diagonalizing with lowered threshold

     Davidson diagonalization with overlap
     ethr =  9.24E-04,  avg # of iterations =  4.0

[...]

     total energy              =   -2241.68311722 Ry
     estimated scf accuracy    <       3.15224591 Ry

[...]

     iteration # 14     ecut=    80.00 Ry     beta= 0.70
     Davidson diagonalization with overlap
     c_bands:  1 eigenvalues not converged
     ethr =  3.08E-09,  avg # of iterations = 20.0

[...]

     End of self-consistent calculation

          k = 0.0000 0.0000 0.0000 (105382 PWs)   bands (ev):

   -62.7733 -62.7541 -62.7412 -62.7389 -62.7290 -62.7198 -62.7046 -62.6998
   -62.6842 -62.6708 -62.5005 -62.3440 -37.1217 -37.0665 -37.0426 -37.0164
   -36.9863 -36.9785 -36.9722 -36.9634 -36.9526 -36.9464 -36.9376 -36.9338
   -36.9117 -36.8999 -36.8966 -36.8913 -36.8818 -36.8756 -36.8662 -36.8604
   -36.8521 -36.8381 -36.8354 -36.8213 -36.7969 -36.7736 -36.7687 -36.7357
   -36.7265 -36.6989 -36.6513 -36.6408 -36.6232 -36.5869 -36.5092 -36.4260
   -30.2465 -16.7919 -16.7030 -15.8117 -15.0635 -14.9815 -14.8419 -14.7156
   -14.6815 -14.3852 -14.3533 -14.3140 -14.2937 -14.2593 -14.2240 -14.1779
   -14.0919 -14.0334 -13.9951 -13.9921 -13.9151 -13.8471 -13.7482 -13.7174
   -13.6783 -12.3076  -9.0385  -7.4969  -7.3298  -7.1579  -7.1423  -7.0980
    -7.0677  -6.9999  -6.9340  -6.7036  -6.6906  -6.6064  -6.5498  -6.5291
    -6.3771  -6.3575  -6.2896  -6.2304  -6.0251  -6.0108  -5.8579  -5.7981
    -5.7340  -5.7121  -5.6346  -5.6012  -5.5917  -5.5497  -5.5320  -5.4902
    -5.4093  -5.3927  -5.3328  -5.2491  -5.2341  -5.1088  -4.9961  -4.9364
    -4.8775  -4.8478  -4.8061  -4.7137  -4.6393  -4.5551  -4.4216  -4.2680
    -4.1993  -4.1484  -4.1404  -4.0156  -3.9288  -3.8347  -3.8088  -3.6987
    -3.6426  -3.6074  -3.5493  -3.5161  -3.4577  -3.4024  -3.3810  -3.3403
    -3.2857  -3.2666  -3.1545  -3.0943  -3.0007  -2.9025  -2.8073  -2.6946
    -2.6543  -2.6229  -2.6188  -2.5932  -2.5468  -2.4646  -2.3415  -2.2558
    -2.0464  -1.9151  -1.8104  -1.6630  -0.7148  -0.6266  -0.1040  -0.0401
    -0.0113   0.0298   0.0932   0.1494   0.2542   0.3341   0.3923   0.4470
     0.4609   0.5351   0.6041   0.6379   0.6785   0.7041   0.7566   0.7662
     0.8162   0.8616   0.8836   0.9016   0.9512   1.0072   1.0558   1.0852
     1.1216   1.3406   1.4810

     the Fermi energy is    -1.1889 ev

!    total energy              =   -2241.81025438 Ry
     estimated scf accuracy    <       0.00000023 Ry
     smearing contrib. (-TS)   =      -0.00000006 Ry
     internal energy E=F+TS    =   -2241.81025432 Ry

     The total energy is F=E-TS. E is the sum of the following terms:
[...]
     atom    3 type  2   force =     0.06078775   -0.22249728  -38.30142228
     atom    4 type  1   force =    -0.15348171    1.35658387   -0.83421107
     atom    5 type  2   force =    -1.38076257    2.12881945   37.62202080
     atom    6 type  2   force =     0.20686883   -0.08023003  -38.98791181
     atom    7 type  1   force =    -2.71740919   -2.33019766    2.52504956
     atom    8 type  2   force =    -1.17978574    0.14345723   38.05114760
     atom    9 type  2   force =     0.34905430    0.12686856  -38.08130519
     atom   10 type  1   force =    -0.46346753   -1.73059664   -0.39017488
     atom   11 type  2   force =    -0.96437457   -2.21931148   38.09456010
     atom   12 type  2   force =     0.15838188    0.15323211  -38.49782900
     atom   13 type  1   force =     0.13797464    0.96555995    0.30700394
     atom   14 type  2   force =    -0.97839579   -0.07058446   37.72104992
     atom   15 type  2   force =    -0.05551379   -0.26060227  -38.50258866
     atom   16 type  1   force =    -0.37444319    3.84321760    0.27698398
     atom   17 type  2   force =     0.83923538    1.38618562   37.89082337
     atom   18 type  2   force =    -0.20801347   -0.17185282  -38.62142961
     atom   19 type  1   force =     2.65069474   -1.98669473    2.89548333
     atom   20 type  2   force =    -0.03411643    0.09788657  -39.03312418
     atom   21 type  1   force =    -0.49938784   -0.84005311   -0.25422985
     atom   22 type  2   force =     0.43748255   -1.61744747   38.38477480
     atom   23 type  2   force =    -0.21666953    0.12715417  -38.16521425
     atom   24 type  1   force =     0.99733904    0.86014614   -2.64254049
     atom   25 type  2   force =     1.17538185    0.05855083   38.03538678
     atom   26 type  2   force =    -0.01594559   -0.21713197  -38.45693586
     atom   27 type  1   force =     0.50336657    0.89424593   -0.56736767
     atom   28 type  2   force =     0.56154256    1.51136891   37.48418790
     atom   29 type  2   force =     0.01658281    0.16042417  -38.55217313
     atom   30 type  1   force =     0.11457297   -1.10075407    1.95377571
     atom   31 type  2   force =     1.28618856    0.09620492   38.28282841
     atom   32 type  2   force =    -0.32195343    0.10898058  -38.19027440
     atom   33 type  1   force =     1.00582407   -1.00453106    1.84522370
     atom   34 type  2   force =     0.52773121   -1.35478365   38.47434380
     atom   35 type  2   force =     0.04744669   -0.02072042  -38.09709707
     atom   36 type  3   force =    -0.14618172    0.38871739   50.44998117
     The local contribution  to forces
     atom    1 type  1   force =     1.13531754   -1.14023928    2.60518406
     atom    2 type  2   force =     0.21949406    0.29312479  -28.78295504
     atom    3 type  2   force =    -0.05808569    0.23131454   38.04443872
     atom    4 type  1   force =     0.14868012   -1.35905647    0.83106772
     atom    5 type  2   force =     1.37581932   -2.11054564  -37.38415332
     atom    6 type  2   force =    -0.20624885    0.08396203   38.74391333
     atom    7 type  1   force =     2.73721257    2.33059181   -2.49745112
     atom    8 type  2   force =     1.17283807   -0.14528810  -37.80450270
     atom    9 type  2   force =    -0.34255797   -0.11286946   37.83027967
     atom   10 type  1   force =     0.46173750    1.71007937    0.37294460
     atom   11 type  2   force =     0.95766332    2.21935802  -37.85256517
     atom   12 type  2   force =    -0.15090890   -0.14101068   38.25384103
     atom   13 type  1   force =    -0.13870826   -0.99019477   -0.31010661
     atom   14 type  2   force =     0.97882435    0.07634579  -37.46772002
     atom   15 type  2   force =     0.05583118    0.26894755   38.26310694
     atom   16 type  1   force =     0.37473963   -3.87730549   -0.24394664
     atom   17 type  2   force =    -0.83447502   -1.36420698  -37.65314033
     atom   18 type  2   force =     0.20794622    0.17850550   38.37465137
     atom   19 type  1   force =    -2.66550567    1.98225465   -2.86974390
     atom   20 type  2   force =     0.03447771   -0.08364128   38.79216007
     atom   21 type  1   force =     0.49901624    0.81054822    0.25202956
     atom   22 type  2   force =    -0.43266723    1.61797580  -38.14367013
     atom   23 type  2   force =     0.20893229   -0.11566633   37.91932487
     atom   24 type  1   force =    -0.98824828   -0.86893734    2.61987468
     atom   25 type  2   force =    -1.17632046   -0.05024702  -37.78392918
     atom   26 type  2   force =     0.01284297    0.22565725   38.21436401
     atom   27 type  1   force =    -0.50022209   -0.90075771    0.56122476
     atom   28 type  2   force =    -0.56128668   -1.50135738  -37.22742463
     atom   29 type  2   force =    -0.01699042   -0.15117099   38.30656274
     atom   30 type  1   force =    -0.12151560    1.08346332   -1.95714434
     atom   31 type  2   force =    -1.27740911   -0.09852922  -38.03702133
     atom   32 type  2   force =     0.31499341   -0.09579358   37.94240963
     atom   33 type  1   force =    -1.00220557    0.99742990   -1.84738005
     atom   34 type  2   force =    -0.52541350    1.36223077  -38.21767862
     atom   35 type  2   force =    -0.04701434    0.03230598   37.85263101
     atom   36 type  3   force =     0.15569378   -0.28883123  -48.16141775
     The core correction contribution to forces
     atom    1 type  1   force =     0.00000000    0.00000000    0.00000000
     atom    2 type  2   force =    -0.00032569   -0.00083702   -0.00994139
     atom    3 type  2   force =     0.00018141    0.00018206   -0.02136323
     atom    4 type  1   force =     0.00000000    0.00000000    0.00000000
     atom    5 type  2   force =    -0.00042895    0.00077129    0.02072525
     atom    6 type  2   force =     0.00028687   -0.00012766   -0.02083524
     atom    7 type  1   force =     0.00000000    0.00000000    0.00000000
     atom    8 type  2   force =    -0.00034118    0.00013037    0.02094757
     atom    9 type  2   force =     0.00065229    0.00086699   -0.02102130
     atom   10 type  1   force =     0.00000000    0.00000000    0.00000000
     atom   11 type  2   force =    -0.00025106   -0.00018330    0.02093385
     atom   12 type  2   force =     0.00060281    0.00086800   -0.02089215
     atom   13 type  1   force =     0.00000000    0.00000000    0.00000000
     atom   14 type  2   force =     0.00004542    0.00007471    0.02140887
     atom   15 type  2   force =     0.00004680    0.00027055   -0.02060645
     atom   16 type  1   force =     0.00000000    0.00000000    0.00000000
     atom   17 type  2   force =     0.00047578    0.00097975    0.02057523
     atom   18 type  2   force =    -0.00019604   -0.00009562   -0.02092728
     atom   19 type  1   force =     0.00000000    0.00000000    0.00000000
     atom   20 type  2   force =    -0.00000407    0.00079513   -0.02122681
     atom   21 type  1   force =     0.00000000    0.00000000    0.00000000
     atom   22 type  2   force =     0.00006920   -0.00016931    0.02076499
     atom   23 type  2   force =    -0.00072851    0.00079080   -0.02091346
     atom   24 type  1   force =     0.00000000    0.00000000    0.00000000
     atom   25 type  2   force =    -0.00009581    0.00046110    0.02130695
     atom   26 type  2   force =    -0.00021189    0.00020641   -0.02078739
     atom   27 type  1   force =     0.00000000    0.00000000    0.00000000
     atom   28 type  2   force =     0.00001488    0.00063090    0.02150898
     atom   29 type  2   force =    -0.00005337    0.00043768   -0.02078421
     atom   30 type  1   force =     0.00000000    0.00000000    0.00000000
     atom   31 type  2   force =     0.00048712    0.00004968    0.02099983
     atom   32 type  2   force =    -0.00061134    0.00080992   -0.02101871
     atom   33 type  1   force =     0.00000000    0.00000000    0.00000000
     atom   34 type  2   force =     0.00016668    0.00032656    0.02161077
     atom   35 type  2   force =     0.00006223    0.00067509   -0.02092360
     atom   36 type  3   force =     0.00010029    0.00109827    0.02455468
     The Hubbard contrib.    to forces
     atom    1 type  1   force =     0.00000000    0.00000000    0.00000000
     atom    2 type  2   force =     0.00000000    0.00000000    0.00000000
     atom    3 type  2   force =     0.00000000    0.00000000    0.00000000
     atom    4 type  1   force =     0.00000000    0.00000000    0.00000000
     atom    5 type  2   force =     0.00000000    0.00000000    0.00000000
     atom    6 type  2   force =     0.00000000    0.00000000    0.00000000
     atom    7 type  1   force =     0.00000000    0.00000000    0.00000000
     atom    8 type  2   force =     0.00000000    0.00000000    0.00000000
     atom    9 type  2   force =     0.00000000    0.00000000    0.00000000
     atom   10 type  1   force =     0.00000000    0.00000000    0.00000000
     atom   11 type  2   force =     0.00000000    0.00000000    0.00000000
     atom   12 type  2   force =     0.00000000    0.00000000    0.00000000
     atom   13 type  1   force =     0.00000000    0.00000000    0.00000000
     atom   14 type  2   force =     0.00000000    0.00000000    0.00000000
     atom   15 type  2   force =     0.00000000    0.00000000    0.00000000
     atom   16 type  1   force =     0.00000000    0.00000000    0.00000000
     atom   17 type  2   force =     0.00000000    0.00000000    0.00000000
     atom   18 type  2   force =     0.00000000    0.00000000    0.00000000
     atom   19 type  1   force =     0.00000000    0.00000000    0.00000000
     atom   20 type  2   force =     0.00000000    0.00000000    0.00000000
     atom   21 type  1   force =     0.00000000    0.00000000    0.00000000
     atom   22 type  2   force =     0.00000000    0.00000000    0.00000000
     atom   23 type  2   force =     0.00000000    0.00000000    0.00000000
     atom   24 type  1   force =     0.00000000    0.00000000    0.00000000
     atom   25 type  2   force =     0.00000000    0.00000000    0.00000000
     atom   26 type  2   force =     0.00000000    0.00000000    0.00000000
     atom   27 type  1   force =     0.00000000    0.00000000    0.00000000
     atom   28 type  2   force =     0.00000000    0.00000000    0.00000000
     atom   29 type  2   force =     0.00000000    0.00000000    0.00000000
     atom   30 type  1   force =     0.00000000    0.00000000    0.00000000
     atom   31 type  2   force =     0.00000000    0.00000000    0.00000000
     atom   32 type  2   force =     0.00000000    0.00000000    0.00000000
     atom   33 type  1   force =     0.00000000    0.00000000    0.00000000
     atom   34 type  2   force =     0.00000000    0.00000000    0.00000000
     atom   35 type  2   force =     0.00000000    0.00000000    0.00000000
     atom   36 type  3   force =     0.00000000    0.00000000    0.00000000
     The SCF correction term to forces
     atom    1 type  1   force =    -0.00001822    0.00007313   -0.00002612
     atom    2 type  2   force =     0.00002015    0.00004400   -0.00000234
     atom    3 type  2   force =     0.00000832    0.00002072   -0.00000203
     atom    4 type  1   force =     0.00001633   -0.00002979    0.00001709
     atom    5 type  2   force =     0.00000967   -0.00000072    0.00000303
     atom    6 type  2   force =    -0.00000159   -0.00000628    0.00000608
     atom    7 type  1   force =    -0.00000677   -0.00003098    0.00001212
     atom    8 type  2   force =     0.00001222   -0.00001877    0.00001256
     atom    9 type  2   force =     0.00000864   -0.00001525   -0.00000044
     atom   10 type  1   force =     0.00002619   -0.00002578   -0.00003834
     atom   11 type  2   force =    -0.00000343   -0.00001474   -0.00000053
     atom   12 type  2   force =     0.00000212    0.00000152   -0.00000183
     atom   13 type  1   force =    -0.00001693    0.00002954   -0.00002037
     atom   14 type  2   force =    -0.00001856    0.00002043   -0.00001416
     atom   15 type  2   force =    -0.00001687    0.00002165    0.00000059
     atom   16 type  1   force =    -0.00002301   -0.00002453    0.00000544
     atom   17 type  2   force =    -0.00001048    0.00000031   -0.00000521
     atom   18 type  2   force =    -0.00000730   -0.00001011    0.00000634
     atom   19 type  1   force =    -0.00002237   -0.00002957    0.00002190
     atom   20 type  2   force =    -0.00000806   -0.00001504    0.00000156
     atom   21 type  1   force =    -0.00002695    0.00001511   -0.00000970
     atom   22 type  2   force =    -0.00001380   -0.00000837    0.00000407
     atom   23 type  2   force =    -0.00000740    0.00000340    0.00000412
     atom   24 type  1   force =     0.00006389    0.00006031   -0.00001885
     atom   25 type  2   force =    -0.00000457    0.00001852   -0.00001780
     atom   26 type  2   force =    -0.00000253    0.00002275    0.00001262
     atom   27 type  1   force =    -0.00000711   -0.00002485    0.00001034
     atom   28 type  2   force =     0.00000394   -0.00000335    0.00000260
     atom   29 type  2   force =     0.00000961   -0.00001116    0.00001503
     atom   30 type  1   force =     0.00000773   -0.00003208    0.00002434
     atom   31 type  2   force =     0.00000190   -0.00001137    0.00000651
     atom   32 type  2   force =     0.00000510   -0.00001680    0.00000823
     atom   33 type  1   force =     0.00000549    0.00001993    0.00000522
     atom   34 type  2   force =     0.00001847   -0.00001038   -0.00000180
     atom   35 type  2   force =     0.00000569    0.00000409    0.00000578
     atom   36 type  3   force =     0.00003679    0.00009862    0.00004857

     Total force =     0.009299     Total SCF correction =     0.000227
     Energy error            =      9.7E-05 Ry
     Gradient error          =      4.9E-03 Ry/Bohr

     bfgs converged in  25 scf cycles and  24 bfgs steps
     (criteria: energy <  1.0E-04 Ry, force <  1.0E-02 Ry/Bohr)

     End of BFGS Geometry Optimization

     Final energy             =   -2246.4495894110 Ry

     File ./MoS2-V-O.bfgs deleted, as requested
Begin final coordinates

ATOMIC_POSITIONS (angstrom)
Mo            6.5458477918        1.7878526414        2.7166208799
S             8.1341827381        0.8718536217        4.2467659118
S             8.1502602220        0.8388086482        1.1654385672
Mo            8.1324062306        4.5019648565        2.7073880333
S             6.5237161280        3.6714505571        4.2956788486
S             6.5662814494        3.5959254787        1.0814432880
Mo            6.5178228267        7.1910141267        2.6810211242
S             8.0948290514        6.3046064282        4.3094022488
S             8.1511000576        6.3453116657        1.1280291092
Mo            8.1460327623        9.9160732180        2.7606684818
S             6.5237014084        8.9567277070        4.3317678036
S             6.5869303305        9.0216224669        1.1239439047
Mo            3.4323093345        1.7552970922        2.7325895894
S             5.0047622188        0.8385910649        4.3229660659
S             4.9930387686        0.8336076478        1.1364214240
Mo            5.0037137881        4.5483222640        2.6392968454
S             3.4783083268        3.6651513177        4.2896955015
S             3.4394668641        3.5734509397        1.0932887340
Mo            3.4861586156        7.1895456859        2.6836685746
S             5.0009686294        6.3337541581        1.0447808758
Mo            5.0028717704        9.9180201253        2.7255612974
S             3.4755470498        8.9681507430        4.3307439511
S             3.4031588059        9.0304112827        1.1367386117
Mo            0.2952088825        1.7765448291        2.7288515871
S             1.8561917115        0.8737648879        4.3474862728
S             1.8622337866        0.8333692100        1.1463291177
Mo            1.8759196316        4.5066064625        2.7038143496
S             0.2788511131        3.6117792880        4.3085277028
S             0.2776227013        3.5965203969        1.1213429314
Mo            0.2863965802        7.2259266237        2.7521767996
S             1.9254991025        6.3023086040        4.3152314239
S             1.8684503125        6.3429620660        1.1225377865
Mo            1.8549838449        9.9473449766        2.7697322688
S             0.2760691533        9.0374878967        4.3756293980
S             0.2867669776        9.0415568701        1.1700006468
O             8.1407469343        0.9415827839        5.7451676197
End final coordinates

     Writing all to output data dir ./MoS2-V-O.save/

     General routines

     Parallel routines

   This run was terminated on:  13:36:36   1Nov2023

   JOB DONE.