     Program PWSCF v.7.2 starts on  1Nov2023 at 17:54: 1

     Waiting for input...
     Reading input from standard input
Warning: card &CELL ignored
Warning: card CELL_DYNAMICS = 'BFGS', ignored
Warning: card CELL_DOFREE = '2DXY' ignored
Warning: card / ignored

     Current dimensions of program PWSCF are:
     Max number of different atomic species (ntypx) = 10
     Max number of k-points (npk) =  40000
     Max angular momentum in pseudopotentials (lmaxx) =  4
     file O.pbe-n-kjpaw_psl.0.1.UPF: wavefunction(s)  2P renormalized

     IMPORTANT: XC functional enforced from input :
     Exchange-correlation= RVV10
                           (   1   4  13   4  26   0   0)
     Any further DFT definition will be discarded
     Please, verify this is what you really want

     gamma-point specific algorithms are used
     signal trapping enabled: kill the code with -SIGUSR1 to stop cleanly the simulation

     R & G space division:  proc/nbgrp/npool/nimage =      48
     Subspace diagonalization in iterative solution of the eigenvalue problem:
     one sub-group per band group will be used

     Using Slab Decomposition

     bravais-lattice index     =            0
     lattice parameter (alat)  =      17.8707  a.u.
     unit-cell volume          =   17436.2743 (a.u.)^3
     number of atoms/cell      =           36
     number of atomic types    =            3
     number of electrons       =       312.00
     number of Kohn-Sham states=          187
     kinetic-energy cutoff     =      80.0000  Ry
     charge density cutoff     =     650.0000  Ry
     scf convergence threshold =      1.0E-06
     mixing beta               =       0.7000
     number of iterations used =            8  local-TF  mixing
     energy convergence thresh.=      1.0E-04
     force convergence thresh. =      1.0E-02
     Exchange-correlation= RVV10
                           (   1   4  13   4  26   0   0)
     nstep                     =          200

     celldm(1)=  17.870686  celldm(2)=   0.000000  celldm(3)=   0.000000
     celldm(4)=   0.000000  celldm(5)=   0.000000  celldm(6)=   0.000000

     crystal axes: (cart. coord. in units of alat)
               a(1) = (   1.000000   0.000000   0.000000 )
               a(2) = (   0.000000   1.155671   0.000000 )
               a(3) = (   0.000000   0.000000   2.643601 )

     reciprocal axes: (cart. coord. in units 2 pi/alat)
               b(1) = (  1.000000  0.000000  0.000000 )
               b(2) = (  0.000000  0.865298  0.000000 )
               b(3) = (  0.000000  0.000000  0.378272 )

     PseudoPot. # 1 for Mo read from file:
     ../pseudo/Mo_ONCV_PBE-1.0.oncvpsp.upf
     MD5 check sum: 1b5d28e075c9ccadda658a603575cd1f
     Pseudo is Norm-conserving, Zval = 14.0
     Generated using ONCVPSP code by D. R. Hamann
     Using radial grid of 1526 points,  6 beta functions with:
                l(1) =   0
                l(2) =   0
                l(3) =   1
                l(4) =   1
                l(5) =   2
                l(6) =   2

     PseudoPot. # 2 for S  read from file:
     ../pseudo/s_pbe_v1.4.uspp.F.UPF
     MD5 check sum: 88d86576ff6df21479756cfb9bdac1df
     Pseudo is Ultrasoft + core correction, Zval =  6.0
     Generated by new atomic code, or converted to UPF format
     Using radial grid of  907 points,  6 beta functions with:
                l(1) =   0
                l(2) =   0
                l(3) =   1
                l(4) =   1
                l(5) =   2
                l(6) =   2
     Q(r) pseudized with  8 coefficients,  rinner =    1.300   1.300   1.300
                                                       1.300   1.300

     PseudoPot. # 3 for O  read from file:
     ../pseudo/O.pbe-n-kjpaw_psl.0.1.UPF
     MD5 check sum: 0234752ac141de4415c5fc33072bef88
     Pseudo is Projector augmented-wave + core cor, Zval =  6.0
     Generated using "atomic" code by A. Dal Corso  v.5.0.99 svn rev. 10869
     Shape of augmentation charge: BESSEL
     Using radial grid of 1095 points,  4 beta functions with:
                l(1) =   0
                l(2) =   0
                l(3) =   1
                l(4) =   1
     Q(r) pseudized with 0 coefficients

     atomic species   valence    mass     pseudopotential
        Mo            14.00    95.94000     Mo( 1.00)
        S              6.00    32.06500     S ( 1.00)
        O              6.00    15.99940     O ( 1.00)

     No symmetry found

   Cartesian axes

     site n.     atom                  positions (alat units)
         1           Mo  tau(   1) = (   0.6952221   0.1890506   0.2985846  )
         2           S   tau(   2) = (   0.8646417   0.0856217   0.4689279  )
         3           S   tau(   3) = (   0.8663890   0.0857843   0.1351291  )
         4           Mo  tau(   4) = (   0.8560186   0.4753274   0.2873942  )
         5           S   tau(   5) = (   0.6873294   0.3936244   0.4596353  )
         6           S   tau(   6) = (   0.6929804   0.3713468   0.1185692  )
         7           Mo  tau(   7) = (   0.6862796   0.7633098   0.2825370  )
         8           S   tau(   8) = (   0.8545980   0.6708292   0.4486168  )
         9           S   tau(   9) = (   0.8545123   0.6666874   0.1146125  )
        10           Mo  tau(  10) = (   0.8629403   1.0471007   0.3006803  )
        11           S   tau(  11) = (   0.6868280   0.9456650   0.4634891  )
        12           S   tau(  12) = (   0.6998113   0.9568511   0.1205389  )
        13           Mo  tau(  13) = (   0.3618216   0.1847309   0.2935964  )
        14           S   tau(  14) = (   0.5260962   0.0863870   0.4600448  )
        15           S   tau(  15) = (   0.5348379   0.0894875   0.1297123  )
        16           Mo  tau(  16) = (   0.5265817   0.4772436   0.2784130  )
        17           S   tau(  17) = (   0.3624753   0.3882513   0.4525556  )
        18           S   tau(  18) = (   0.3635411   0.3752055   0.1119148  )
        19           Mo  tau(  19) = (   0.3652268   0.7630864   0.2781795  )
        20           S   tau(  20) = (   0.5269494   0.6690381   0.1096838  )
        21           Mo  tau(  21) = (   0.5300192   1.0470394   0.2900995  )
        22           S   tau(  22) = (   0.3670346   0.9457522   0.4574073  )
        23           S   tau(  23) = (   0.3604225   0.9585725   0.1159032  )
        24           Mo  tau(  24) = (   0.0313099   0.1847895   0.3013130  )
        25           S   tau(  25) = (   0.1956761   0.0838230   0.4650863  )
        26           S   tau(  26) = (   0.1967693   0.0903508   0.1278874  )
        27           Mo  tau(  27) = (   0.1967578   0.4753919   0.2813011  )
        28           S   tau(  28) = (   0.0287851   0.3864324   0.4586755  )
        29           S   tau(  29) = (   0.0244514   0.3729871   0.1239344  )
        30           Mo  tau(  30) = (   0.0286728   0.7631204   0.2856894  )
        31           S   tau(  31) = (   0.2011512   0.6675435   0.4465001  )
        32           S   tau(  32) = (   0.1969214   0.6672839   0.1104564  )
        33           Mo  tau(  33) = (   0.1950294   1.0511147   0.2932237  )
        34           S   tau(  34) = (   0.0312912   0.9612169   0.4667423  )
        35           S   tau(  35) = (   0.0292670   0.9563028   0.1216485  )
        36           O   tau(  36) = (   0.3333333   0.6420393   0.5792558  )

     number of k points=     1  Gaussian smearing, width (Ry)=  0.0100
                       cart. coord. in units 2pi/alat
        k(    1) = (   0.0000000   0.0000000   0.0000000), wk =   2.0000000

     Initial potential from superposition of free atoms

     starting charge     311.9873, renormalised to     312.0000

     negative rho (up, down):  2.748E-04 0.000E+00

Carrying out rVV10 run using the following parameters:
Nqs =      20    Nr_points =    1024   r_max =   100.000
b_value =  6.30000    beta =  0.00901
     q_mesh =  0.00010000  0.00030000  0.00058939  0.00100810
               0.00161396  0.00249058  0.00375900  0.00559430
               0.00824984  0.01209221  0.01765183  0.02569619
               0.03733578  0.05417739  0.07854596  0.11380545
               0.16482331  0.23864234  0.34545298  0.50000000

Gradients computed in Reciprocal space

     Starting wfcs are  216 randomized atomic wfcs
     Checking if some PAW data can be deallocated...

     Self-consistent Calculation

     iteration #  1     ecut=    80.00 Ry     beta= 0.70
     Davidson diagonalization with overlap
     ethr =  1.00E-02,  avg # of iterations =  2.0

     Threshold (ethr) on eigenvalues was too large:
     Diagonalizing with lowered threshold

     Davidson diagonalization with overlap
     ethr =  4.48E-04,  avg # of iterations =  4.0

[...]

     total energy              =   -2246.26087353 Ry
     estimated scf accuracy    <       1.64810382 Ry

[...]

     End of self-consistent calculation

          k = 0.0000 0.0000 0.0000 (105382 PWs)   bands (ev):

   -63.0963 -63.0166 -63.0054 -62.9960 -62.9841 -62.9794 -62.9589 -62.9509
   -62.9420 -62.9154 -62.9042 -62.8705 -37.3894 -37.3406 -37.3217 -37.2942
   -37.2846 -37.2673 -37.2530 -37.2202 -37.2123 -37.2090 -37.2046 -37.1930
   -37.1812 -37.1792 -37.1773 -37.1667 -37.1579 -37.1463 -37.1427 -37.1291
   -37.1139 -37.1060 -37.0958 -37.0808 -37.0749 -37.0696 -37.0590 -37.0461
   -37.0290 -37.0267 -37.0105 -37.0013 -36.9866 -36.9243 -36.8886 -36.8468
   -19.6074 -16.0801 -15.3125 -15.2600 -15.0601 -15.0366 -14.9159 -14.6232
   -14.5901 -14.5752 -14.5478 -14.5036 -14.4695 -14.4497 -14.3720 -14.2827
   -14.2704 -14.2411 -14.2038 -14.1602 -14.0209 -13.9930 -13.9583 -13.9357
    -7.8684  -7.6910  -7.5646  -7.5178  -7.4028  -7.3451  -7.3243  -7.2969
    -7.1853  -6.9995  -6.9553  -6.9311  -6.8707  -6.7585  -6.6667  -6.5794
    -6.5503  -6.5144  -6.3970  -6.3186  -6.1345  -6.1232  -6.0267  -5.9629
    -5.8983  -5.8800  -5.8705  -5.8601  -5.7968  -5.7691  -5.7002  -5.6725
    -5.6663  -5.6158  -5.5637  -5.3238  -5.3124  -5.2487  -5.1539  -5.1106
    -5.0952  -5.0399  -5.0190  -4.8638  -4.7764  -4.6181  -4.4560  -4.4218
    -4.3894  -4.2821  -4.2107  -4.1712  -4.1303  -4.0074  -3.9588  -3.9035
    -3.8559  -3.8249  -3.7285  -3.7156  -3.6746  -3.6145  -3.6042  -3.5799
    -3.5383  -3.5079  -3.3995  -3.2542  -3.1622  -3.0647  -2.9932  -2.9424
    -2.9076  -2.9009  -2.8507  -2.8469  -2.7834  -2.7320  -2.6241  -2.4769
    -2.3794  -2.1389  -2.0767  -1.7232  -1.1947  -0.9049  -0.7415  -0.3308
    -0.2728  -0.2253  -0.1338  -0.0520   0.0181   0.0359   0.1130   0.1330
     0.1464   0.2393   0.2769   0.3363   0.3794   0.4012   0.4512   0.4774
     0.5247   0.5713   0.6278   0.6554   0.6906   0.7095   0.7712   0.7829
     0.8342   0.9419   1.0568

     the Fermi energy is    -1.4589 ev

!    total energy              =   -2246.29746385 Ry
     estimated scf accuracy    <       0.00000097 Ry
     smearing contrib. (-TS)   =      -0.00025948 Ry
     internal energy E=F+TS    =   -2246.29720437 Ry

     The total energy is F=E-TS. E is the sum of the following terms:
     one-electron contribution =  -18416.60855056 Ry
     hartree contribution      =    9195.84784293 Ry
     xc contribution           =    -391.84282618 Ry
     ewald contribution        =    7376.17804497 Ry
[...]
     atom    3 type  2   force =     0.05598690   -0.04714997  -37.82082769
     atom    4 type  1   force =    -0.60588554   -0.28334394   -0.53585875
     atom    5 type  2   force =    -0.81331034    0.82143896   38.05075565
     atom    6 type  2   force =     0.23189530   -0.50432574  -38.41655950
     atom    7 type  1   force =    -2.53725744   -1.56233065    0.96408098
     atom    8 type  2   force =    -2.02432107    0.06759323   37.66277520
     atom    9 type  2   force =     0.35200936   -0.04580521  -38.67372707
     atom   10 type  1   force =    -0.76461592    0.15972217    2.04401835
     atom   11 type  2   force =    -0.42209750   -1.08008010   38.22129334
     atom   12 type  2   force =     0.30228288    0.46732283  -38.39747390
     atom   13 type  1   force =     0.29581506    0.18898963    1.12579182
     atom   14 type  2   force =     0.09746489   -0.04748202   38.37104489
     atom   15 type  2   force =     0.05830460   -0.07752044  -38.04220605
     atom   16 type  1   force =     0.57993301    2.72353681    0.38170071
     atom   17 type  2   force =     1.48374527    0.06657059   37.56754036
     atom   18 type  2   force =    -0.12928404   -0.48312377  -38.84467185
     atom   19 type  1   force =     3.33275652   -1.45005805   -2.10144498
     atom   20 type  2   force =     0.10531532   -0.10679178  -39.61817274
     atom   21 type  1   force =     0.36659904    0.42634410   -0.20265294
     atom   22 type  2   force =     1.06163959   -0.30679033   37.92336080
     atom   23 type  2   force =    -0.24661220    0.57030546  -38.81517603
     atom   24 type  1   force =    -0.16516198   -0.08922667    2.10921754
     atom   25 type  2   force =     0.21227840    0.07277932   38.52712957
     atom   26 type  2   force =    -0.13426660   -0.06164716  -37.79538366
     atom   27 type  1   force =     0.04304164   -0.90776586   -3.62701552
     atom   28 type  2   force =    -0.63111950   -0.46534297   37.62652418
     atom   29 type  2   force =    -0.11698881   -0.24672823  -38.28067215
     atom   30 type  1   force =    -1.04618986   -0.02598332   -1.36660518
     atom   31 type  2   force =     1.05734540    0.27433836   28.01545966
     atom   32 type  2   force =    -0.42009319    0.01271203  -38.55064336
     atom   33 type  1   force =     0.37554380    0.61141199    1.71103030
     atom   34 type  2   force =    -0.54624758    0.56936371   38.35852810
     atom   35 type  2   force =    -0.03443610    0.33235995  -38.16153204
     atom   36 type  3   force =     1.04775436   -0.20175182   49.94880326
     The local contribution  to forces
     atom    1 type  1   force =     0.09815452   -0.57395759   -1.86123691
     atom    2 type  2   force =     0.32273845   -0.06798415  -38.52493493
     atom    3 type  2   force =    -0.05260457    0.05718284   37.57513918
     atom    4 type  1   force =     0.60002644    0.27578426    0.53379958
     atom    5 type  2   force =     0.81058998   -0.80021607  -37.81373343
     atom    6 type  2   force =    -0.23119812    0.50570726   38.16883740
     atom    7 type  1   force =     2.55363617    1.55825442   -0.93834017
     atom    8 type  2   force =     2.01566513   -0.06718682  -37.41531635
     atom    9 type  2   force =    -0.34328054    0.05854322   38.43104360
     atom   10 type  1   force =     0.76440013   -0.16784402   -2.04769411
     atom   11 type  2   force =     0.41530850    1.08245644  -37.97809822
     atom   12 type  2   force =    -0.29375705   -0.45342698   38.15360479
     atom   13 type  1   force =    -0.30137793   -0.21476504   -1.11956227
     atom   14 type  2   force =    -0.09620259    0.05804454  -38.12028485
     atom   15 type  2   force =    -0.05786472    0.08697670   37.79990741
     atom   16 type  1   force =    -0.57931574   -2.75399186   -0.34318481
     atom   17 type  2   force =    -1.48107302   -0.04550797  -37.32759654
     atom   18 type  2   force =     0.12881297    0.48524843   38.59824901
     atom   19 type  1   force =    -3.34116817    1.45823503    2.10740695
     atom   20 type  2   force =    -0.10562580    0.11751854   39.37820052
     atom   21 type  1   force =    -0.36694685   -0.45227439    0.19806714
     atom   22 type  2   force =    -1.05690733    0.30963543  -37.68009494
     atom   23 type  2   force =     0.23806416   -0.55545250   38.57361166
     atom   24 type  1   force =     0.16974694    0.07716916   -2.10769511
     atom   25 type  2   force =    -0.21237268   -0.06245404  -38.27757587
     atom   26 type  2   force =     0.13023111    0.07119307   37.54732920
     atom   27 type  1   force =    -0.04083153    0.88569648    3.60408141
     atom   28 type  2   force =     0.63055356    0.47577951  -37.36971625
     atom   29 type  2   force =     0.11552788    0.25406249   38.03393979
     atom   30 type  1   force =     1.04180943    0.02214657    1.34680182
     atom   31 type  2   force =    -1.05932084   -0.24215816  -28.30287982
     atom   32 type  2   force =     0.41307780   -0.00068009   38.29046790
     atom   33 type  1   force =    -0.37542678   -0.61544787   -1.71214350
     atom   34 type  2   force =     0.54682625   -0.56107008  -38.10319896
     atom   35 type  2   force =     0.03484943   -0.31894062   37.91805589
     atom   36 type  3   force =    -0.99659278    0.15074762  -47.66763883
     The core correction contribution to forces
     atom    1 type  1   force =     0.00000000    0.00000000    0.00000000
     atom    2 type  2   force =    -0.00018455    0.00045614    0.02102353
     atom    3 type  2   force =     0.00022139    0.00050337   -0.02088626
     atom    4 type  1   force =     0.00000000    0.00000000    0.00000000
     atom    5 type  2   force =    -0.00035035    0.00096400    0.02054533
     atom    6 type  2   force =     0.00020864   -0.00037226   -0.02095809
     atom    7 type  1   force =     0.00000000    0.00000000    0.00000000
     atom    8 type  2   force =    -0.00043692    0.00021290    0.02120569
     atom    9 type  2   force =     0.00073938    0.00062307   -0.02077034
     atom   10 type  1   force =     0.00000000    0.00000000    0.00000000
     atom   11 type  2   force =    -0.00016969   -0.00014965    0.02084907
     atom   12 type  2   force =     0.00075272    0.00105086   -0.02079346
     atom   13 type  1   force =     0.00000000    0.00000000    0.00000000
     atom   14 type  2   force =    -0.00001344    0.00018490    0.02105394
     atom   15 type  2   force =     0.00005630    0.00038071   -0.02076200
     atom   16 type  1   force =     0.00000000    0.00000000    0.00000000
     atom   17 type  2   force =     0.00032825    0.00099575    0.02082267
     atom   18 type  2   force =    -0.00018587   -0.00022563   -0.02097986
     atom   19 type  1   force =     0.00000000    0.00000000    0.00000000
     atom   20 type  2   force =     0.00002817    0.00040915   -0.02111522
     atom   21 type  1   force =     0.00000000    0.00000000    0.00000000
     atom   22 type  2   force =     0.00011121   -0.00010467    0.02101521
     atom   23 type  2   force =    -0.00079589    0.00115996   -0.02081264
     atom   24 type  1   force =     0.00000000    0.00000000    0.00000000
     atom   25 type  2   force =     0.00009876    0.00043826    0.02097644
     atom   26 type  2   force =    -0.00030708    0.00042868   -0.02091373
     atom   27 type  1   force =     0.00000000    0.00000000    0.00000000
     atom   28 type  2   force =     0.00000248    0.00084596    0.02149600
     atom   29 type  2   force =    -0.00015719    0.00013918   -0.02077861
     atom   30 type  1   force =     0.00000000    0.00000000    0.00000000
     atom   31 type  2   force =     0.00001466    0.00188551   -0.00988403
     atom   32 type  2   force =    -0.00068382    0.00071385   -0.02142716
     atom   33 type  1   force =     0.00000000    0.00000000    0.00000000
     atom   34 type  2   force =     0.00010427    0.00044202    0.02152330
     atom   35 type  2   force =     0.00007430    0.00086079   -0.02083806
     atom   36 type  3   force =     0.00056540   -0.00053016    0.02445783
     The Hubbard contrib.    to forces
     atom    1 type  1   force =     0.00000000    0.00000000    0.00000000
     atom    2 type  2   force =     0.00000000    0.00000000    0.00000000
     atom    3 type  2   force =     0.00000000    0.00000000    0.00000000
     atom    4 type  1   force =     0.00000000    0.00000000    0.00000000
     atom    5 type  2   force =     0.00000000    0.00000000    0.00000000
     atom    6 type  2   force =     0.00000000    0.00000000    0.00000000
     atom    7 type  1   force =     0.00000000    0.00000000    0.00000000
     atom    8 type  2   force =     0.00000000    0.00000000    0.00000000
     atom    9 type  2   force =     0.00000000    0.00000000    0.00000000
     atom   10 type  1   force =     0.00000000    0.00000000    0.00000000
     atom   11 type  2   force =     0.00000000    0.00000000    0.00000000
     atom   12 type  2   force =     0.00000000    0.00000000    0.00000000
     atom   13 type  1   force =     0.00000000    0.00000000    0.00000000
     atom   14 type  2   force =     0.00000000    0.00000000    0.00000000
     atom   15 type  2   force =     0.00000000    0.00000000    0.00000000
     atom   16 type  1   force =     0.00000000    0.00000000    0.00000000
     atom   17 type  2   force =     0.00000000    0.00000000    0.00000000
     atom   18 type  2   force =     0.00000000    0.00000000    0.00000000
     atom   19 type  1   force =     0.00000000    0.00000000    0.00000000
     atom   20 type  2   force =     0.00000000    0.00000000    0.00000000
     atom   21 type  1   force =     0.00000000    0.00000000    0.00000000
     atom   22 type  2   force =     0.00000000    0.00000000    0.00000000
     atom   23 type  2   force =     0.00000000    0.00000000    0.00000000
     atom   24 type  1   force =     0.00000000    0.00000000    0.00000000
     atom   25 type  2   force =     0.00000000    0.00000000    0.00000000
     atom   26 type  2   force =     0.00000000    0.00000000    0.00000000
     atom   27 type  1   force =     0.00000000    0.00000000    0.00000000
     atom   28 type  2   force =     0.00000000    0.00000000    0.00000000
     atom   29 type  2   force =     0.00000000    0.00000000    0.00000000
     atom   30 type  1   force =     0.00000000    0.00000000    0.00000000
     atom   31 type  2   force =     0.00000000    0.00000000    0.00000000
     atom   32 type  2   force =     0.00000000    0.00000000    0.00000000
     atom   33 type  1   force =     0.00000000    0.00000000    0.00000000
     atom   34 type  2   force =     0.00000000    0.00000000    0.00000000
     atom   35 type  2   force =     0.00000000    0.00000000    0.00000000
     atom   36 type  3   force =     0.00000000    0.00000000    0.00000000
     The SCF correction term to forces
     atom    1 type  1   force =     0.00000047   -0.00000996   -0.00006241
     atom    2 type  2   force =    -0.00000491   -0.00000311   -0.00003341
     atom    3 type  2   force =    -0.00000483   -0.00000164   -0.00001384
     atom    4 type  1   force =    -0.00002508   -0.00001622   -0.00006973
     atom    5 type  2   force =     0.00000103   -0.00000836   -0.00003482
     atom    6 type  2   force =    -0.00000584   -0.00000153   -0.00001388
     atom    7 type  1   force =    -0.00000184   -0.00000288   -0.00007802
     atom    8 type  2   force =     0.00000487   -0.00000179   -0.00002899
     atom    9 type  2   force =    -0.00000287   -0.00000102   -0.00001956
     atom   10 type  1   force =    -0.00001900    0.00002411   -0.00007215
     atom   11 type  2   force =     0.00000499    0.00001688   -0.00003083
     atom   12 type  2   force =     0.00000227    0.00001396   -0.00001822
     atom   13 type  1   force =     0.00002926   -0.00002662   -0.00006849
     atom   14 type  2   force =     0.00000177   -0.00000274   -0.00003666
     atom   15 type  2   force =    -0.00000298   -0.00000401   -0.00001533
     atom   16 type  1   force =     0.00000406   -0.00002085   -0.00007709
     atom   17 type  2   force =     0.00000455   -0.00000729   -0.00003603
     atom   18 type  2   force =     0.00001334   -0.00000409   -0.00001577
     atom   19 type  1   force =    -0.00000380   -0.00000172   -0.00007448
     atom   20 type  2   force =     0.00000667   -0.00001463   -0.00002277
     atom   21 type  1   force =     0.00001247    0.00004414   -0.00006346
     atom   22 type  2   force =     0.00000177    0.00001843   -0.00003382
     atom   23 type  2   force =     0.00000167    0.00001440   -0.00002072
     atom   24 type  1   force =    -0.00000272   -0.00001870   -0.00007368
     atom   25 type  2   force =    -0.00000106   -0.00000275   -0.00003307
     atom   26 type  2   force =     0.00000099   -0.00000114   -0.00001582
     atom   27 type  1   force =     0.00000716   -0.00001439   -0.00006469
     atom   28 type  2   force =    -0.00000355   -0.00000423   -0.00002949
     atom   29 type  2   force =    -0.00000665   -0.00001055   -0.00001824
     atom   30 type  1   force =    -0.00000892    0.00000150   -0.00005953
     atom   31 type  2   force =    -0.00000758   -0.00000330   -0.00002485
     atom   32 type  2   force =     0.00000244    0.00000039   -0.00002373
     atom   33 type  1   force =     0.00000186    0.00002957   -0.00007277
     atom   34 type  2   force =    -0.00000337    0.00000649   -0.00003298
     atom   35 type  2   force =    -0.00000248    0.00000903   -0.00001879
     atom   36 type  3   force =     0.00000481   -0.00000243   -0.00005101

     Total force =     0.006895     Total SCF correction =     0.000295
     Energy error            =      1.0E-04 Ry
     Gradient error          =      2.1E-03 Ry/Bohr

     bfgs converged in  23 scf cycles and  22 bfgs steps
     (criteria: energy <  1.0E-04 Ry, force <  1.0E-02 Ry/Bohr)

     End of BFGS Geometry Optimization

     Final energy             =   -2246.4506421182 Ry

     File ./MoS2-V-O.bfgs deleted, as requested
Begin final coordinates

ATOMIC_POSITIONS (angstrom)
Mo            6.5946860964        1.7467700171        2.7662070614
S             8.1628649978        0.8411427018        4.3798666301
S             8.1778012456        0.8394694079        1.1900691582
Mo            8.1540344854        4.4900800969        2.7229735609
S             6.5514936571        3.6561848845        4.3139399763
S             6.5892733212        3.5557071060        1.1194278885
Mo            6.5499576816        7.1781625674        2.6667115966
S             8.0960383984        6.3075830111        4.3065894903
S             8.1625417752        6.3100817506        1.1127765102
Mo            8.1793201133        9.9333755847        2.7768390882
S             6.5556927794        8.9484793138        4.3265827789
S             6.6285885019        9.0315834969        1.1321952879
Mo            3.4693386416        1.7564708236        2.7564560508
S             5.0248347556        0.8062845234        4.3449645088
S             5.0342117077        0.8330474658        1.1653707132
Mo            5.0281180868        4.5406473101        2.6599581572
S             3.4969322824        3.6625594373        4.3114525479
S             3.4844865712        3.5551831370        1.1006351845
Mo            3.5346202042        7.1976703313        2.6448685545
S             5.0405543832        6.3027498321        1.0270844149
Mo            5.0289565393        9.9013157159        2.7279129606
S             3.5145657631        8.9293116128        4.3367689888
S             3.4333950699        9.0401570785        1.1156694327
Mo            0.2964381752        1.7412955138        2.7856161947
S             1.9019949137        0.8418555446        4.3718801100
S             1.8788494473        0.8410012906        1.1896602125
Mo            1.8993917738        4.4617005319        2.7010861051
S             0.3064588318        3.6099815552        4.3334217486
S             0.2825948599        3.5393986886        1.1515556783
Mo            0.2715511004        7.2251677048        2.7407890774
S             1.9412752591        6.3156884547        4.2080667888
S             1.8745321587        6.3189131277        1.1287581067
Mo            1.8953658043        9.9262735703        2.7778415798
S             0.3076673550        9.0289745877        4.3771951758
S             0.3064658153        9.0597860231        1.1766174897
O             1.9697077928        6.2785037221        5.7069527284
End final coordinates

     Writing all to output data dir ./MoS2-V-O.save/

     General routines

     Parallel routines

   This run was terminated on:  18:37:20   1Nov2023

   JOB DONE.