     Program PWSCF v.7.2 starts on  4Nov2023 at 12:26:38

     Waiting for input...
     Reading input from standard input
Warning: card &CELL ignored
Warning: card CELL_DYNAMICS = 'BFGS', ignored
Warning: card CELL_DOFREE = '2DXY' ignored
Warning: card / ignored

     Current dimensions of program PWSCF are:
     Max number of different atomic species (ntypx) = 10
     Max number of k-points (npk) =  40000
     Max angular momentum in pseudopotentials (lmaxx) =  4
     file O.pbe-n-kjpaw_psl.0.1.UPF: wavefunction(s)  2P renormalized

     IMPORTANT: XC functional enforced from input :
     Exchange-correlation= RVV10
                           (   1   4  13   4  26   0   0)
     Any further DFT definition will be discarded
     Please, verify this is what you really want

     gamma-point specific algorithms are used
     signal trapping enabled: kill the code with -SIGUSR1 to stop cleanly the simulation

     R & G space division:  proc/nbgrp/npool/nimage =      48
     Subspace diagonalization in iterative solution of the eigenvalue problem:
     one sub-group per band group will be used

     Using Slab Decomposition

     bravais-lattice index     =            0
     lattice parameter (alat)  =      17.8707  a.u.
     unit-cell volume          =   17436.2743 (a.u.)^3
     number of atoms/cell      =           36
     number of atomic types    =            3
     number of electrons       =       312.00
     number of Kohn-Sham states=          187
     kinetic-energy cutoff     =      80.0000  Ry
     charge density cutoff     =     650.0000  Ry
     scf convergence threshold =      1.0E-06
     mixing beta               =       0.7000
     number of iterations used =            8  local-TF  mixing
     energy convergence thresh.=      1.0E-04
     force convergence thresh. =      1.0E-02
     Exchange-correlation= RVV10
                           (   1   4  13   4  26   0   0)
     nstep                     =          200

     celldm(1)=  17.870686  celldm(2)=   0.000000  celldm(3)=   0.000000
     celldm(4)=   0.000000  celldm(5)=   0.000000  celldm(6)=   0.000000

     crystal axes: (cart. coord. in units of alat)
               a(1) = (   1.000000   0.000000   0.000000 )
               a(2) = (   0.000000   1.155671   0.000000 )
               a(3) = (   0.000000   0.000000   2.643601 )

     reciprocal axes: (cart. coord. in units 2 pi/alat)
               b(1) = (  1.000000  0.000000  0.000000 )
               b(2) = (  0.000000  0.865298  0.000000 )
               b(3) = (  0.000000  0.000000  0.378272 )

     PseudoPot. # 1 for Mo read from file:
     ../../pseudo/Mo_ONCV_PBE-1.0.oncvpsp.upf
     MD5 check sum: 1b5d28e075c9ccadda658a603575cd1f
     Pseudo is Norm-conserving, Zval = 14.0
     Generated using ONCVPSP code by D. R. Hamann
     Using radial grid of 1526 points,  6 beta functions with:
                l(1) =   0
                l(2) =   0
                l(3) =   1
                l(4) =   1
                l(5) =   2
                l(6) =   2

     PseudoPot. # 2 for S  read from file:
     ../../pseudo/s_pbe_v1.4.uspp.F.UPF
     MD5 check sum: 88d86576ff6df21479756cfb9bdac1df
     Pseudo is Ultrasoft + core correction, Zval =  6.0
     Generated by new atomic code, or converted to UPF format
     Using radial grid of  907 points,  6 beta functions with:
                l(1) =   0
                l(2) =   0
                l(3) =   1
                l(4) =   1
                l(5) =   2
                l(6) =   2
     Q(r) pseudized with  8 coefficients,  rinner =    1.300   1.300   1.300
                                                       1.300   1.300

     PseudoPot. # 3 for O  read from file:
     ../../pseudo/O.pbe-n-kjpaw_psl.0.1.UPF
     MD5 check sum: 0234752ac141de4415c5fc33072bef88
     Pseudo is Projector augmented-wave + core cor, Zval =  6.0
     Generated using "atomic" code by A. Dal Corso  v.5.0.99 svn rev. 10869
     Shape of augmentation charge: BESSEL
     Using radial grid of 1095 points,  4 beta functions with:
                l(1) =   0
                l(2) =   0
                l(3) =   1
                l(4) =   1
     Q(r) pseudized with 0 coefficients

     atomic species   valence    mass     pseudopotential
        Mo            14.00    95.94000     Mo( 1.00)
        S              6.00    32.06500     S ( 1.00)
        O              6.00    15.99940     O ( 1.00)

     No symmetry found

   Cartesian axes

     site n.     atom                  positions (alat units)
         1           Mo  tau(   1) = (   0.6952221   0.1890506   0.2985846  )
         2           S   tau(   2) = (   0.8646417   0.0856217   0.4689279  )
         3           S   tau(   3) = (   0.8663890   0.0857843   0.1351291  )
         4           Mo  tau(   4) = (   0.8560186   0.4753274   0.2873942  )
         5           S   tau(   5) = (   0.6873294   0.3936244   0.4596353  )
         6           S   tau(   6) = (   0.6929804   0.3713468   0.1185692  )
         7           Mo  tau(   7) = (   0.6862796   0.7633098   0.2825370  )
         8           S   tau(   8) = (   0.8545980   0.6708292   0.4486168  )
         9           S   tau(   9) = (   0.8545123   0.6666874   0.1146125  )
        10           Mo  tau(  10) = (   0.8629403   1.0471007   0.3006803  )
        11           S   tau(  11) = (   0.6868280   0.9456650   0.4634891  )
        12           S   tau(  12) = (   0.6998113   0.9568511   0.1205389  )
        13           Mo  tau(  13) = (   0.3618216   0.1847309   0.2935964  )
        14           S   tau(  14) = (   0.5260962   0.0863870   0.4600448  )
        15           S   tau(  15) = (   0.5348379   0.0894875   0.1297123  )
        16           Mo  tau(  16) = (   0.5265817   0.4772436   0.2784130  )
        17           S   tau(  17) = (   0.3624753   0.3882513   0.4525556  )
        18           S   tau(  18) = (   0.3635411   0.3752055   0.1119148  )
        19           Mo  tau(  19) = (   0.3652268   0.7630864   0.2781795  )
        20           S   tau(  20) = (   0.5269494   0.6690381   0.1096838  )
        21           Mo  tau(  21) = (   0.5300192   1.0470394   0.2900995  )
        22           S   tau(  22) = (   0.3670346   0.9457522   0.4574073  )
        23           S   tau(  23) = (   0.3604225   0.9585725   0.1159032  )
        24           Mo  tau(  24) = (   0.0313099   0.1847895   0.3013130  )
        25           S   tau(  25) = (   0.1956761   0.0838230   0.4650863  )
        26           S   tau(  26) = (   0.1967693   0.0903508   0.1278874  )
        27           Mo  tau(  27) = (   0.1967578   0.4753919   0.2813011  )
        28           S   tau(  28) = (   0.0287851   0.3864324   0.4586755  )
        29           S   tau(  29) = (   0.0244514   0.3729871   0.1239344  )
        30           Mo  tau(  30) = (   0.0286728   0.7631204   0.2856894  )
        31           S   tau(  31) = (   0.2011512   0.6675435   0.4465001  )
        32           S   tau(  32) = (   0.1969214   0.6672839   0.1104564  )
        33           Mo  tau(  33) = (   0.1950294   1.0511147   0.2932237  )
        34           S   tau(  34) = (   0.0312912   0.9612169   0.4667423  )
        35           S   tau(  35) = (   0.0292670   0.9563028   0.1216485  )
        36           O   tau(  36) = (   0.5555556   0.1284079   0.5575849  )

     number of k points=     1  Gaussian smearing, width (Ry)=  0.0100
                       cart. coord. in units 2pi/alat
        k(    1) = (   0.0000000   0.0000000   0.0000000), wk =   2.0000000

     Initial potential from superposition of free atoms

     starting charge     311.9873, renormalised to     312.0000

     negative rho (up, down):  2.742E-04 0.000E+00

Carrying out rVV10 run using the following parameters:
Nqs =      20    Nr_points =    1024   r_max =   100.000
b_value =  6.30000    beta =  0.00901
     q_mesh =  0.00010000  0.00030000  0.00058939  0.00100810
               0.00161396  0.00249058  0.00375900  0.00559430
               0.00824984  0.01209221  0.01765183  0.02569619
               0.03733578  0.05417739  0.07854596  0.11380545
               0.16482331  0.23864234  0.34545298  0.50000000

Gradients computed in Reciprocal space

     Starting wfcs are  216 randomized atomic wfcs
     Checking if some PAW data can be deallocated...

     Self-consistent Calculation

     iteration #  1     ecut=    80.00 Ry     beta= 0.70
     Davidson diagonalization with overlap
     ethr =  1.00E-02,  avg # of iterations =  3.0

     Threshold (ethr) on eigenvalues was too large:
     Diagonalizing with lowered threshold

     Davidson diagonalization with overlap
     ethr =  5.88E-04,  avg # of iterations =  2.0

[...]

     total energy              =   -2245.24361301 Ry
     estimated scf accuracy    <       2.08214090 Ry

[...]

     iteration #  5     ecut=    80.00 Ry     beta= 0.70
     Davidson diagonalization with overlap
     c_bands:  1 eigenvalues not converged
     ethr =  8.06E-06,  avg # of iterations = 20.0

[...]

     End of self-consistent calculation

          k = 0.0000 0.0000 0.0000 (105382 PWs)   bands (ev):

   -62.8414 -62.8365 -62.8224 -62.8130 -62.8032 -62.7869 -62.7811 -62.7710
   -62.7516 -62.7411 -62.6308 -62.4744 -37.2088 -37.1451 -37.1026 -37.0966
   -37.0837 -37.0602 -37.0540 -37.0346 -37.0260 -37.0105 -37.0058 -36.9989
   -36.9878 -36.9852 -36.9765 -36.9689 -36.9594 -36.9574 -36.9458 -36.9366
   -36.9143 -36.9109 -36.9034 -36.8894 -36.8503 -36.8420 -36.8362 -36.8302
   -36.8055 -36.8021 -36.7856 -36.7333 -36.7170 -36.6928 -36.6244 -36.5518
   -30.0337 -15.8933 -15.1567 -15.0419 -14.9339 -14.8469 -14.6948 -14.4738
   -14.4383 -14.4008 -14.3728 -14.3271 -14.3194 -14.2526 -14.1743 -14.0976
   -14.0786 -14.0566 -14.0329 -13.8798 -13.7978 -13.7741 -13.7546 -12.8916
   -12.1738 -12.1084  -8.9463  -7.5511  -7.3971  -7.2416  -7.2097  -7.1586
    -7.1202  -7.0392  -7.0073  -6.7655  -6.7186  -6.6817  -6.6626  -6.5915
    -6.4270  -6.3934  -6.3283  -6.2869  -6.2289  -6.0007  -5.9040  -5.8312
    -5.7866  -5.7578  -5.7177  -5.6904  -5.6468  -5.6154  -5.5822  -5.5224
    -5.4966  -5.4426  -5.4030  -5.3080  -5.2661  -5.1038  -5.0684  -5.0295
    -4.9608  -4.8804  -4.8700  -4.8383  -4.7905  -4.5353  -4.4341  -4.3665
    -4.2710  -4.2066  -4.1740  -4.1070  -4.0581  -3.9466  -3.9261  -3.7102
    -3.6769  -3.6576  -3.5927  -3.5227  -3.4965  -3.4780  -3.4472  -3.4188
    -3.4142  -3.3680  -3.2686  -3.1960  -3.1308  -2.9336  -2.8858  -2.7706
    -2.7654  -2.7143  -2.6616  -2.6393  -2.5966  -2.5415  -2.5208  -2.2999
    -2.1873  -1.9194  -1.8735  -1.7993  -0.7938  -0.7117  -0.3188  -0.1174
    -0.0763   0.0464   0.0612   0.1713   0.1955   0.2058   0.3135   0.3468
     0.4571   0.4917   0.5191   0.5670   0.5846   0.6143   0.6422   0.6676
     0.7675   0.7957   0.8019   0.8564   0.8728   0.9133   0.9586   1.0311
     1.0610   1.1767   1.3900

     the Fermi energy is    -1.2965 ev

!    total energy              =   -2245.28474953 Ry
     estimated scf accuracy    <       0.00000033 Ry
     smearing contrib. (-TS)   =      -0.00000001 Ry
     internal energy E=F+TS    =   -2245.28474951 Ry

     The total energy is F=E-TS. E is the sum of the following terms:
[...]
     atom    3 type  2   force =     0.10870039   -0.16478233  -38.46153587
     atom    4 type  1   force =     0.21978709    0.84474094   -1.16990557
     atom    5 type  2   force =    -0.34805754    2.13834902   37.62438087
     atom    6 type  2   force =     0.16937588   -0.14327547  -38.95487996
     atom    7 type  1   force =    -2.59879634   -2.41178988    1.99295602
     atom    8 type  2   force =    -1.05978278    0.06224778   38.13539344
     atom    9 type  2   force =     0.35490102    0.08344381  -38.40974416
     atom   10 type  1   force =     0.10915309   -1.03021415    1.58866569
     atom   11 type  2   force =     0.11737452   -2.37989519   38.03413179
     atom   12 type  2   force =     0.24534907    0.18016062  -38.56092618
     atom   13 type  1   force =    -0.73331765    1.27541879   -2.02343822
     atom   14 type  2   force =    -0.02228277   -0.06022393   28.31514304
     atom   15 type  2   force =    -0.01671937   -0.20374707  -38.13791227
     atom   16 type  1   force =     0.02343253    4.25385240    0.40551275
     atom   17 type  2   force =     0.36918704    2.13526688   37.67220486
     atom   18 type  2   force =    -0.18247901   -0.14352847  -38.92059371
     atom   19 type  1   force =     2.63702722   -2.43118104    2.73466405
     atom   20 type  2   force =    -0.02749531    0.06411667  -38.82507526
     atom   21 type  1   force =     0.00597695   -1.44556040   -2.19007604
     atom   22 type  2   force =    -0.10998200   -2.35763758   38.15010917
     atom   23 type  2   force =    -0.27022804    0.16793492  -38.46178656
     atom   24 type  1   force =     0.00992296    0.81583551    0.34702657
     atom   25 type  2   force =    -0.82586999    0.10749325   38.10073001
     atom   26 type  2   force =    -0.07983674   -0.18597794  -38.39483049
     atom   27 type  1   force =    -0.23608569    0.84069352   -0.81547183
     atom   28 type  2   force =    -0.01621890    0.77508537   37.67808947
     atom   29 type  2   force =     0.01761589    0.02979226  -38.20832345
     atom   30 type  1   force =     0.00320310   -0.77936191    1.69859841
     atom   31 type  2   force =     1.01170387    0.06896440   38.23552322
     atom   32 type  2   force =    -0.33432936    0.08816580  -38.29328322
     atom   33 type  1   force =    -0.10126038   -0.99840159    1.92250441
     atom   34 type  2   force =    -0.01971778   -0.76377170   38.70536643
     atom   35 type  2   force =     0.02008902   -0.00491486  -37.83417229
     atom   36 type  3   force =     0.02715902    0.16693628   50.39268088
     The local contribution  to forces
     atom    1 type  1   force =    -0.69705340   -1.32028585    2.14350329
     atom    2 type  2   force =    -0.82654377   -0.09172401  -37.83320179
     atom    3 type  2   force =    -0.10634368    0.17369991   38.21862628
     atom    4 type  1   force =    -0.22571157   -0.85154048    1.16387354
     atom    5 type  2   force =     0.34545319   -2.11789092  -37.38705047
     atom    6 type  2   force =    -0.17048800    0.14675540   38.71129653
     atom    7 type  1   force =     2.60747487    2.41159090   -1.96939285
     atom    8 type  2   force =     1.05496922   -0.06385577  -37.88955950
     atom    9 type  2   force =    -0.34868287   -0.06980790   38.16270012
     atom   10 type  1   force =    -0.11122548    1.02249419   -1.59035157
     atom   11 type  2   force =    -0.12279857    2.38069431  -37.79097540
     atom   12 type  2   force =    -0.23744694   -0.16752836   38.31706763
     atom   13 type  1   force =     0.72501026   -1.29081607    2.01094151
     atom   14 type  2   force =     0.02179391    0.06546068  -28.60142107
     atom   15 type  2   force =     0.01662700    0.21314003   37.88423770
     atom   16 type  1   force =    -0.02382947   -4.28367482   -0.37372406
     atom   17 type  2   force =    -0.36625938   -2.11510439  -37.43477414
     atom   18 type  2   force =     0.18348663    0.14730344   38.67692770
     atom   19 type  1   force =    -2.64599003    2.43126098   -2.71087659
     atom   20 type  2   force =     0.02687415   -0.04961824   38.58057812
     atom   21 type  1   force =    -0.00542155    1.41040188    2.17493452
     atom   22 type  2   force =     0.11596121    2.35887497  -37.90734090
     atom   23 type  2   force =     0.26210643   -0.15518390   38.21778553
     atom   24 type  1   force =    -0.00905618   -0.83419142   -0.35608106
     atom   25 type  2   force =     0.82486037   -0.10047252  -37.84872060
     atom   26 type  2   force =     0.07793428    0.19459017   38.15151874
     atom   27 type  1   force =     0.24145292   -0.84787588    0.80960565
     atom   28 type  2   force =     0.01572576   -0.76285469  -37.41973720
     atom   29 type  2   force =    -0.01745521   -0.01946833   37.95841232
     atom   30 type  1   force =    -0.00295689    0.75835152   -1.70245130
     atom   31 type  2   force =    -1.00770550   -0.07087062  -37.98989282
     atom   32 type  2   force =     0.32864609   -0.07442106   38.04603477
     atom   33 type  1   force =     0.10272561    0.99138394   -1.92426139
     atom   34 type  2   force =     0.01918566    0.77102748  -38.45108084
     atom   35 type  2   force =    -0.01968084    0.01619744   37.58786744
     atom   36 type  3   force =    -0.01906732   -0.15904408  -48.09714354
     The core correction contribution to forces
     atom    1 type  1   force =     0.00000000    0.00000000    0.00000000
     atom    2 type  2   force =     0.00000534    0.00030057    0.02132767
     atom    3 type  2   force =     0.00009585    0.00023718   -0.02078338
     atom    4 type  1   force =     0.00000000    0.00000000    0.00000000
     atom    5 type  2   force =    -0.00028442    0.00093634    0.02068832
     atom    6 type  2   force =     0.00000864   -0.00021718   -0.02083386
     atom    7 type  1   force =     0.00000000    0.00000000    0.00000000
     atom    8 type  2   force =    -0.00026411    0.00008452    0.02098779
     atom    9 type  2   force =     0.00065831    0.00082887   -0.02101294
     atom   10 type  1   force =     0.00000000    0.00000000    0.00000000
     atom   11 type  2   force =    -0.00004164   -0.00012061    0.02100432
     atom   12 type  2   force =     0.00069444    0.00099488   -0.02083505
     atom   13 type  1   force =     0.00000000    0.00000000    0.00000000
     atom   14 type  2   force =    -0.00004928    0.00001524   -0.01002643
     atom   15 type  2   force =    -0.00004065    0.00026335   -0.02111678
     atom   16 type  1   force =     0.00000000    0.00000000    0.00000000
     atom   17 type  2   force =     0.00035560    0.00091786    0.02068756
     atom   18 type  2   force =    -0.00004764   -0.00017799   -0.02083180
     atom   19 type  1   force =     0.00000000    0.00000000    0.00000000
     atom   20 type  2   force =    -0.00010026    0.00079496   -0.02125623
     atom   21 type  1   force =     0.00000000    0.00000000    0.00000000
     atom   22 type  2   force =     0.00010950   -0.00005132    0.02100754
     atom   23 type  2   force =    -0.00075509    0.00090070   -0.02084091
     atom   24 type  1   force =     0.00000000    0.00000000    0.00000000
     atom   25 type  2   force =    -0.00002826    0.00034575    0.02131259
     atom   26 type  2   force =    -0.00012329    0.00021579   -0.02077949
     atom   27 type  1   force =     0.00000000    0.00000000    0.00000000
     atom   28 type  2   force =    -0.00002384    0.00082067    0.02135161
     atom   29 type  2   force =     0.00006478    0.00034611   -0.02087685
     atom   30 type  1   force =     0.00000000    0.00000000    0.00000000
     atom   31 type  2   force =     0.00013552    0.00007739    0.02100573
     atom   32 type  2   force =    -0.00057804    0.00087727   -0.02100860
     atom   33 type  1   force =     0.00000000    0.00000000    0.00000000
     atom   34 type  2   force =    -0.00004743    0.00029905    0.02128721
     atom   35 type  2   force =     0.00004632    0.00070140   -0.02091305
     atom   36 type  3   force =     0.00009220    0.00008792    0.02465111
     The Hubbard contrib.    to forces
     atom    1 type  1   force =     0.00000000    0.00000000    0.00000000
     atom    2 type  2   force =     0.00000000    0.00000000    0.00000000
     atom    3 type  2   force =     0.00000000    0.00000000    0.00000000
     atom    4 type  1   force =     0.00000000    0.00000000    0.00000000
     atom    5 type  2   force =     0.00000000    0.00000000    0.00000000
     atom    6 type  2   force =     0.00000000    0.00000000    0.00000000
     atom    7 type  1   force =     0.00000000    0.00000000    0.00000000
     atom    8 type  2   force =     0.00000000    0.00000000    0.00000000
     atom    9 type  2   force =     0.00000000    0.00000000    0.00000000
     atom   10 type  1   force =     0.00000000    0.00000000    0.00000000
     atom   11 type  2   force =     0.00000000    0.00000000    0.00000000
     atom   12 type  2   force =     0.00000000    0.00000000    0.00000000
     atom   13 type  1   force =     0.00000000    0.00000000    0.00000000
     atom   14 type  2   force =     0.00000000    0.00000000    0.00000000
     atom   15 type  2   force =     0.00000000    0.00000000    0.00000000
     atom   16 type  1   force =     0.00000000    0.00000000    0.00000000
     atom   17 type  2   force =     0.00000000    0.00000000    0.00000000
     atom   18 type  2   force =     0.00000000    0.00000000    0.00000000
     atom   19 type  1   force =     0.00000000    0.00000000    0.00000000
     atom   20 type  2   force =     0.00000000    0.00000000    0.00000000
     atom   21 type  1   force =     0.00000000    0.00000000    0.00000000
     atom   22 type  2   force =     0.00000000    0.00000000    0.00000000
     atom   23 type  2   force =     0.00000000    0.00000000    0.00000000
     atom   24 type  1   force =     0.00000000    0.00000000    0.00000000
     atom   25 type  2   force =     0.00000000    0.00000000    0.00000000
     atom   26 type  2   force =     0.00000000    0.00000000    0.00000000
     atom   27 type  1   force =     0.00000000    0.00000000    0.00000000
     atom   28 type  2   force =     0.00000000    0.00000000    0.00000000
     atom   29 type  2   force =     0.00000000    0.00000000    0.00000000
     atom   30 type  1   force =     0.00000000    0.00000000    0.00000000
     atom   31 type  2   force =     0.00000000    0.00000000    0.00000000
     atom   32 type  2   force =     0.00000000    0.00000000    0.00000000
     atom   33 type  1   force =     0.00000000    0.00000000    0.00000000
     atom   34 type  2   force =     0.00000000    0.00000000    0.00000000
     atom   35 type  2   force =     0.00000000    0.00000000    0.00000000
     atom   36 type  3   force =     0.00000000    0.00000000    0.00000000
     The SCF correction term to forces
     atom    1 type  1   force =    -0.00001859   -0.00002456   -0.00002809
     atom    2 type  2   force =     0.00000252   -0.00000881   -0.00001195
     atom    3 type  2   force =     0.00000575   -0.00000424   -0.00001204
     atom    4 type  1   force =     0.00000317    0.00000180   -0.00002781
     atom    5 type  2   force =    -0.00000748    0.00000420    0.00000514
     atom    6 type  2   force =     0.00000598    0.00000195   -0.00001906
     atom    7 type  1   force =    -0.00000271    0.00000215   -0.00001308
     atom    8 type  2   force =     0.00000523    0.00000313    0.00000152
     atom    9 type  2   force =     0.00000197   -0.00000611   -0.00000539
     atom   10 type  1   force =     0.00001400    0.00001002   -0.00001402
     atom   11 type  2   force =    -0.00000369    0.00000202   -0.00001435
     atom   12 type  2   force =     0.00000471    0.00000669    0.00000044
     atom   13 type  1   force =     0.00001649   -0.00002615   -0.00001241
     atom   14 type  2   force =    -0.00000428    0.00000653   -0.00003765
     atom   15 type  2   force =     0.00000052   -0.00000269    0.00001206
     atom   16 type  1   force =    -0.00001261   -0.00000362   -0.00000378
     atom   17 type  2   force =    -0.00000041    0.00000670    0.00000442
     atom   18 type  2   force =    -0.00000587    0.00000353   -0.00000894
     atom   19 type  1   force =    -0.00000221    0.00000159    0.00000709
     atom   20 type  2   force =     0.00000083   -0.00000241   -0.00000279
     atom   21 type  1   force =    -0.00000352    0.00002449   -0.00000011
     atom   22 type  2   force =    -0.00000260   -0.00000234   -0.00001657
     atom   23 type  2   force =    -0.00000354    0.00000444    0.00001068
     atom   24 type  1   force =     0.00000719   -0.00000113   -0.00003510
     atom   25 type  2   force =     0.00000393   -0.00000720   -0.00001377
     atom   26 type  2   force =    -0.00000839   -0.00000311   -0.00000160
     atom   27 type  1   force =    -0.00000236    0.00000005   -0.00001861
     atom   28 type  2   force =     0.00000894    0.00000223   -0.00000880
     atom   29 type  2   force =     0.00000368   -0.00000626   -0.00001224
     atom   30 type  1   force =     0.00001089    0.00001283    0.00000266
     atom   31 type  2   force =     0.00000165   -0.00000029   -0.00000095
     atom   32 type  2   force =    -0.00000224   -0.00000767    0.00000514
     atom   33 type  1   force =    -0.00000482    0.00000886   -0.00000813
     atom   34 type  2   force =     0.00000436   -0.00000386   -0.00001166
     atom   35 type  2   force =    -0.00000125    0.00001016    0.00000676
     atom   36 type  3   force =     0.00000496    0.00006708   -0.00000696

     Total force =     0.006831     Total SCF correction =     0.000129
     Energy error            =      7.5E-05 Ry
     Gradient error          =      2.4E-03 Ry/Bohr

     bfgs converged in  21 scf cycles and  20 bfgs steps
     (criteria: energy <  1.0E-04 Ry, force <  1.0E-02 Ry/Bohr)

     End of BFGS Geometry Optimization

     Final energy             =   -2246.4491038641 Ry

     File ./MoS2-V-O.bfgs deleted, as requested
Begin final coordinates

ATOMIC_POSITIONS (angstrom)
Mo            6.5957759819        1.7840883257        2.7299303885
S             8.1393174084        0.8716489916        4.3558396053
S             8.1564926151        0.8381836686        1.1541394299
Mo            8.1296618116        4.5096849184        2.6965802606
S             6.5396656348        3.6746648970        4.2995593866
S             6.5614743793        3.5908529227        1.0865512872
Mo            6.5359699132        7.1955776747        2.6762313299
S             8.0937128337        6.3053201945        4.3047069272
S             8.1539034208        6.3446915356        1.1095904499
Mo            8.1453903470        9.9504169272        2.7699647770
S             6.5336817142        8.9625322117        4.3337995881
S             6.6091397170        9.0322565681        1.1266628148
Mo            3.4079630424        1.7877755630        2.7326591597
S             5.0024586491        0.8393557503        4.2411477285
S             4.9983745271        0.8365617765        1.1772463296
Mo            5.0046102756        4.5461383407        2.6530336283
S             3.4723475170        3.6772857879        4.3027527501
S             3.4430502643        3.5939220667        1.0900567591
Mo            3.4717556279        7.1944141170        2.6895581155
S             4.9989075401        6.3391970467        1.0611067486
Mo            5.0010211010        9.8815317357        2.7275500750
S             3.4748291184        8.9657420502        4.3433839390
S             3.3918671681        9.0253924150        1.1354339894
Mo            0.2724650949        1.7483968972        2.7503426232
S             1.8631933679        0.8759478224        4.3577261150
S             1.8456744421        0.8375680617        1.1585501407
Mo            1.8784467592        4.5114934514        2.7033649470
S             0.2738173303        3.6187223349        4.2988005910
S             0.2792245707        3.5743575710        1.1347633058
Mo            0.2733131874        7.2261693019        2.7465115558
S             1.9049464734        6.3064696332        4.3136790840
S             1.8570679715        6.3469919016        1.1190608724
Mo            1.8600969934        9.9497984860        2.7764334395
S             0.2721170743        9.0426712444        4.3699779462
S             0.2768585488        9.0598761033        1.1822446337
O             5.0075101461        0.8495703383        5.7408836403
End final coordinates

     Writing all to output data dir ./MoS2-V-O.save/

     General routines

     Parallel routines

   This run was terminated on:  13: 3:46   4Nov2023

   JOB DONE.