     Program PWSCF v.7.2 starts on  1Nov2023 at 19:34:24

     Waiting for input...
     Reading input from standard input
Warning: card &CELL ignored
Warning: card CELL_DYNAMICS = 'BFGS', ignored
Warning: card CELL_DOFREE = '2DXY' ignored
Warning: card / ignored

     Current dimensions of program PWSCF are:
     Max number of different atomic species (ntypx) = 10
     Max number of k-points (npk) =  40000
     Max angular momentum in pseudopotentials (lmaxx) =  4
     file O.pbe-n-kjpaw_psl.0.1.UPF: wavefunction(s)  2P renormalized

     IMPORTANT: XC functional enforced from input :
     Exchange-correlation= RVV10
                           (   1   4  13   4  26   0   0)
     Any further DFT definition will be discarded
     Please, verify this is what you really want

     gamma-point specific algorithms are used
     signal trapping enabled: kill the code with -SIGUSR1 to stop cleanly the simulation

     R & G space division:  proc/nbgrp/npool/nimage =      48
     Subspace diagonalization in iterative solution of the eigenvalue problem:
     one sub-group per band group will be used

     Using Slab Decomposition

     bravais-lattice index     =            0
     lattice parameter (alat)  =      17.8707  a.u.
     unit-cell volume          =   17436.2743 (a.u.)^3
     number of atoms/cell      =           36
     number of atomic types    =            3
     number of electrons       =       312.00
     number of Kohn-Sham states=          187
     kinetic-energy cutoff     =      80.0000  Ry
     charge density cutoff     =     650.0000  Ry
     scf convergence threshold =      1.0E-06
     mixing beta               =       0.7000
     number of iterations used =            8  local-TF  mixing
     energy convergence thresh.=      1.0E-04
     force convergence thresh. =      1.0E-02
     Exchange-correlation= RVV10
                           (   1   4  13   4  26   0   0)
     nstep                     =          200

     celldm(1)=  17.870686  celldm(2)=   0.000000  celldm(3)=   0.000000
     celldm(4)=   0.000000  celldm(5)=   0.000000  celldm(6)=   0.000000

     crystal axes: (cart. coord. in units of alat)
               a(1) = (   1.000000   0.000000   0.000000 )
               a(2) = (   0.000000   1.155671   0.000000 )
               a(3) = (   0.000000   0.000000   2.643601 )

     reciprocal axes: (cart. coord. in units 2 pi/alat)
               b(1) = (  1.000000  0.000000  0.000000 )
               b(2) = (  0.000000  0.865298  0.000000 )
               b(3) = (  0.000000  0.000000  0.378272 )

     PseudoPot. # 1 for Mo read from file:
     ../pseudo/Mo_ONCV_PBE-1.0.oncvpsp.upf
     MD5 check sum: 1b5d28e075c9ccadda658a603575cd1f
     Pseudo is Norm-conserving, Zval = 14.0
     Generated using ONCVPSP code by D. R. Hamann
     Using radial grid of 1526 points,  6 beta functions with:
                l(1) =   0
                l(2) =   0
                l(3) =   1
                l(4) =   1
                l(5) =   2
                l(6) =   2

     PseudoPot. # 2 for S  read from file:
     ../pseudo/s_pbe_v1.4.uspp.F.UPF
     MD5 check sum: 88d86576ff6df21479756cfb9bdac1df
     Pseudo is Ultrasoft + core correction, Zval =  6.0
     Generated by new atomic code, or converted to UPF format
     Using radial grid of  907 points,  6 beta functions with:
                l(1) =   0
                l(2) =   0
                l(3) =   1
                l(4) =   1
                l(5) =   2
                l(6) =   2
     Q(r) pseudized with  8 coefficients,  rinner =    1.300   1.300   1.300
                                                       1.300   1.300

     PseudoPot. # 3 for O  read from file:
     ../pseudo/O.pbe-n-kjpaw_psl.0.1.UPF
     MD5 check sum: 0234752ac141de4415c5fc33072bef88
     Pseudo is Projector augmented-wave + core cor, Zval =  6.0
     Generated using "atomic" code by A. Dal Corso  v.5.0.99 svn rev. 10869
     Shape of augmentation charge: BESSEL
     Using radial grid of 1095 points,  4 beta functions with:
                l(1) =   0
                l(2) =   0
                l(3) =   1
                l(4) =   1
     Q(r) pseudized with 0 coefficients

     atomic species   valence    mass     pseudopotential
        Mo            14.00    95.94000     Mo( 1.00)
        S              6.00    32.06500     S ( 1.00)
        O              6.00    15.99940     O ( 1.00)

     No symmetry found

   Cartesian axes

     site n.     atom                  positions (alat units)
         1           Mo  tau(   1) = (   0.6952221   0.1890506   0.2985846  )
         2           S   tau(   2) = (   0.8646417   0.0856217   0.4689279  )
         3           S   tau(   3) = (   0.8663890   0.0857843   0.1351291  )
         4           Mo  tau(   4) = (   0.8560186   0.4753274   0.2873942  )
         5           S   tau(   5) = (   0.6873294   0.3936244   0.4596353  )
         6           S   tau(   6) = (   0.6929804   0.3713468   0.1185692  )
         7           Mo  tau(   7) = (   0.6862796   0.7633098   0.2825370  )
         8           S   tau(   8) = (   0.8545980   0.6708292   0.4486168  )
         9           S   tau(   9) = (   0.8545123   0.6666874   0.1146125  )
        10           Mo  tau(  10) = (   0.8629403   1.0471007   0.3006803  )
        11           S   tau(  11) = (   0.6868280   0.9456650   0.4634891  )
        12           S   tau(  12) = (   0.6998113   0.9568511   0.1205389  )
        13           Mo  tau(  13) = (   0.3618216   0.1847309   0.2935964  )
        14           S   tau(  14) = (   0.5260962   0.0863870   0.4600448  )
        15           S   tau(  15) = (   0.5348379   0.0894875   0.1297123  )
        16           Mo  tau(  16) = (   0.5265817   0.4772436   0.2784130  )
        17           S   tau(  17) = (   0.3624753   0.3882513   0.4525556  )
        18           S   tau(  18) = (   0.3635411   0.3752055   0.1119148  )
        19           Mo  tau(  19) = (   0.3652268   0.7630864   0.2781795  )
        20           S   tau(  20) = (   0.5269494   0.6690381   0.1096838  )
        21           Mo  tau(  21) = (   0.5300192   1.0470394   0.2900995  )
        22           S   tau(  22) = (   0.3670346   0.9457522   0.4574073  )
        23           S   tau(  23) = (   0.3604225   0.9585725   0.1159032  )
        24           Mo  tau(  24) = (   0.0313099   0.1847895   0.3013130  )
        25           S   tau(  25) = (   0.1956761   0.0838230   0.4650863  )
        26           S   tau(  26) = (   0.1967693   0.0903508   0.1278874  )
        27           Mo  tau(  27) = (   0.1967578   0.4753919   0.2813011  )
        28           S   tau(  28) = (   0.0287851   0.3864324   0.4586755  )
        29           S   tau(  29) = (   0.0244514   0.3729871   0.1239344  )
        30           Mo  tau(  30) = (   0.0286728   0.7631204   0.2856894  )
        31           S   tau(  31) = (   0.2011512   0.6675435   0.4465001  )
        32           S   tau(  32) = (   0.1969214   0.6672839   0.1104564  )
        33           Mo  tau(  33) = (   0.1950294   1.0511147   0.2932237  )
        34           S   tau(  34) = (   0.0312912   0.9612169   0.4667423  )
        35           S   tau(  35) = (   0.0292670   0.9563028   0.1216485  )
        36           O   tau(  36) = (   0.6666667   0.7704471   0.5656742  )

     number of k points=     1  Gaussian smearing, width (Ry)=  0.0100
                       cart. coord. in units 2pi/alat
        k(    1) = (   0.0000000   0.0000000   0.0000000), wk =   2.0000000

     Initial potential from superposition of free atoms

     starting charge     311.9873, renormalised to     312.0000

     negative rho (up, down):  2.744E-04 0.000E+00

Carrying out rVV10 run using the following parameters:
Nqs =      20    Nr_points =    1024   r_max =   100.000
b_value =  6.30000    beta =  0.00901
     q_mesh =  0.00010000  0.00030000  0.00058939  0.00100810
               0.00161396  0.00249058  0.00375900  0.00559430
               0.00824984  0.01209221  0.01765183  0.02569619
               0.03733578  0.05417739  0.07854596  0.11380545
               0.16482331  0.23864234  0.34545298  0.50000000

Gradients computed in Reciprocal space

     Starting wfcs are  216 randomized atomic wfcs
     Checking if some PAW data can be deallocated...

     Self-consistent Calculation

     iteration #  1     ecut=    80.00 Ry     beta= 0.70
     Davidson diagonalization with overlap
     ethr =  1.00E-02,  avg # of iterations =  2.0

     Threshold (ethr) on eigenvalues was too large:
     Diagonalizing with lowered threshold

     Davidson diagonalization with overlap
     ethr =  4.29E-04,  avg # of iterations =  3.0

[...]

     total energy              =   -2246.20690679 Ry
     estimated scf accuracy    <       1.58417777 Ry

[...]

     End of self-consistent calculation

          k = 0.0000 0.0000 0.0000 (105382 PWs)   bands (ev):

   -63.0555 -62.9974 -62.9727 -62.9634 -62.9586 -62.9482 -62.9262 -62.9194
   -62.9115 -62.9042 -62.8618 -62.8505 -37.3798 -37.3017 -37.2714 -37.2567
   -37.2460 -37.2375 -37.2259 -37.2118 -37.1978 -37.1851 -37.1699 -37.1663
   -37.1565 -37.1424 -37.1336 -37.1304 -37.1279 -37.1190 -37.1084 -37.1033
   -37.0980 -37.0870 -37.0609 -37.0496 -37.0342 -37.0325 -37.0246 -37.0172
   -37.0071 -36.9974 -36.9765 -36.9534 -36.9511 -36.9179 -36.8793 -36.8284
   -19.3368 -16.0446 -15.3115 -15.2150 -15.0479 -15.0149 -14.8578 -14.6637
   -14.5842 -14.5491 -14.5018 -14.4691 -14.4461 -14.4035 -14.3780 -14.2983
   -14.2224 -14.1987 -14.1632 -14.1368 -13.9605 -13.9528 -13.9485 -13.9237
    -7.8166  -7.6232  -7.5097  -7.4504  -7.4041  -7.3314  -7.3179  -7.2560
    -7.0632  -6.9674  -6.8951  -6.8502  -6.7974  -6.7161  -6.6183  -6.6014
    -6.5659  -6.4930  -6.3659  -6.3340  -6.0984  -6.0636  -6.0015  -5.9349
    -5.8909  -5.8631  -5.8229  -5.7933  -5.7734  -5.7465  -5.6659  -5.6200
    -5.6040  -5.5464  -5.5046  -5.3537  -5.2904  -5.2100  -5.1801  -5.1178
    -5.0141  -5.0066  -4.9792  -4.8175  -4.7922  -4.6519  -4.4553  -4.4158
    -4.3350  -4.2964  -4.2607  -4.1906  -4.1155  -4.0359  -3.9112  -3.8612
    -3.8226  -3.7852  -3.6888  -3.6591  -3.6454  -3.6205  -3.5738  -3.5328
    -3.5027  -3.4901  -3.3772  -3.3496  -3.2066  -3.0371  -2.9984  -2.9554
    -2.8865  -2.8297  -2.8087  -2.7937  -2.7339  -2.6925  -2.6841  -2.3809
    -2.1656  -2.1331  -1.9577  -1.6032  -1.3875  -0.8539  -0.5929  -0.2978
    -0.2355  -0.2097  -0.1044  -0.0726   0.0507   0.0714   0.1244   0.1429
     0.2211   0.2489   0.3377   0.3775   0.4259   0.4537   0.4648   0.5098
     0.5661   0.6138   0.6435   0.6687   0.6768   0.7385   0.8068   0.8397
     0.9060   0.9616   1.0489

     the Fermi energy is    -1.4953 ev

!    total energy              =   -2246.24775216 Ry
     estimated scf accuracy    <       0.00000030 Ry
     smearing contrib. (-TS)   =      -0.00601778 Ry
     internal energy E=F+TS    =   -2246.24173438 Ry

     The total energy is F=E-TS. E is the sum of the following terms:
     one-electron contribution =  -18439.42985134 Ry
     hartree contribution      =    9207.61125605 Ry
     xc contribution           =    -391.84348701 Ry
     ewald contribution        =    7387.29613621 Ry
[...]
     atom    3 type  2   force =     0.06897342   -0.28634795  -37.88542525
     atom    4 type  1   force =     0.28859875   -0.56108960   -1.51981097
     atom    5 type  2   force =    -0.67933236    0.57969386   37.92476125
     atom    6 type  2   force =     0.38897056   -0.44466742  -38.69870436
     atom    7 type  1   force =     0.17860217   -2.31898281   -0.19894808
     atom    8 type  2   force =     0.87442522   -0.98574224   37.12483975
     atom    9 type  2   force =     0.27222411    0.43538550  -38.13322154
     atom   10 type  1   force =     0.26279218   -0.12271630    3.46353805
     atom   11 type  2   force =     1.47546185    4.81026350   39.33273791
     atom   12 type  2   force =     0.57985733    0.31454169  -37.18516906
     atom   13 type  1   force =    -0.46283530    0.93265067   -0.25081954
     atom   14 type  2   force =    -0.38586295    1.03477672   38.58341368
     atom   15 type  2   force =     0.18102490   -0.20148252  -38.61852074
     atom   16 type  1   force =    -0.29219654    1.59981322   -1.45785615
     atom   17 type  2   force =     0.49779265    0.78645079   37.95020764
     atom   18 type  2   force =    -0.22171509   -0.38677276  -39.16018089
     atom   19 type  1   force =     0.49895300   -1.93456859   -1.32950581
     atom   20 type  2   force =     0.12988230    0.07103629  -39.92236300
     atom   21 type  1   force =    -0.15449334    0.74572646   -1.12021146
     atom   22 type  2   force =    -1.20077051   -0.85708954   37.76658551
     atom   23 type  2   force =    -0.23255495    0.37835650  -38.77979219
     atom   24 type  1   force =    -0.11760683    0.48891688    0.62951972
     atom   25 type  2   force =     0.11546753    0.39390592   38.49434572
     atom   26 type  2   force =    -0.17189009   -0.11142235  -38.36513392
     atom   27 type  1   force =    -0.39523697    0.00722108   -2.11785009
     atom   28 type  2   force =     0.27193507    0.28244128   37.91948609
     atom   29 type  2   force =    -0.05803018   -0.16331580  -38.50052267
     atom   30 type  1   force =     0.15797271   -0.70414922   -0.10133909
     atom   31 type  2   force =     0.84302547   -0.28547389   37.91632718
     atom   32 type  2   force =    -0.57807216    0.05654122  -38.87620429
     atom   33 type  1   force =    -0.15815676    0.03522151    0.74252328
     atom   34 type  2   force =     0.65483408   -0.26790884   38.76382761
     atom   35 type  2   force =    -0.34711996    0.20634119  -38.04591628
     atom   36 type  3   force =    -3.03635562   -5.57655486   43.61693404
     The local contribution  to forces
     atom    1 type  1   force =    -0.40839888   -1.14586286   -1.33058405
     atom    2 type  2   force =    -0.32913391   -0.91863382  -38.46515625
     atom    3 type  2   force =    -0.07160192    0.29633468   37.63488230
     atom    4 type  1   force =    -0.29990473    0.55591967    1.51670676
     atom    5 type  2   force =     0.67468582   -0.55702548  -37.69077194
     atom    6 type  2   force =    -0.38854421    0.45055174   38.45311567
     atom    7 type  1   force =    -0.17969960    2.33677372    0.28692166
     atom    8 type  2   force =    -0.91134902    0.99506901  -36.89118890
     atom    9 type  2   force =    -0.26706768   -0.41489855   37.87824184
     atom   10 type  1   force =    -0.25394461    0.13489986   -3.47148712
     atom   11 type  2   force =    -1.41579238   -4.35013955  -39.05208748
     atom   12 type  2   force =    -0.57073423   -0.30013666   36.93172603
     atom   13 type  1   force =     0.45972043   -0.96122185    0.25993351
     atom   14 type  2   force =     0.36673395   -1.02905333  -38.33888180
     atom   15 type  2   force =    -0.17211267    0.20770467   38.37585995
     atom   16 type  1   force =     0.29234078   -1.63382714    1.48255502
     atom   17 type  2   force =    -0.49322980   -0.76118258  -37.71834338
     atom   18 type  2   force =     0.22373327    0.38826192   38.91822475
     atom   19 type  1   force =    -0.51855719    1.93834141    1.35481918
     atom   20 type  2   force =    -0.12755943   -0.04702807   39.68034390
     atom   21 type  1   force =     0.13005753   -0.77157438    1.11063729
     atom   22 type  2   force =     1.21366246    0.86012962  -37.53371492
     atom   23 type  2   force =     0.23052661   -0.36671006   38.53668721
     atom   24 type  1   force =     0.11715868   -0.50623280   -0.62878333
     atom   25 type  2   force =    -0.11256908   -0.38178377  -38.25070641
     atom   26 type  2   force =     0.16757409    0.12138195   38.11910614
     atom   27 type  1   force =     0.39972590   -0.01552331    2.11096689
     atom   28 type  2   force =    -0.26682966   -0.26874077  -37.66620048
     atom   29 type  2   force =     0.05510273    0.17108347   38.25962444
     atom   30 type  1   force =    -0.16875711    0.69757241    0.08697107
     atom   31 type  2   force =    -0.83539025    0.27902521  -37.67079077
     atom   32 type  2   force =     0.56989267   -0.04556706   38.63043402
     atom   33 type  1   force =     0.16313214   -0.04270847   -0.74674338
     atom   34 type  2   force =    -0.65028224    0.27654864  -38.51479537
     atom   35 type  2   force =     0.34362407   -0.19963182   37.80361803
     atom   36 type  3   force =     2.47168501    4.03484639  -42.53589684
     The core correction contribution to forces
     atom    1 type  1   force =     0.00000000    0.00000000    0.00000000
     atom    2 type  2   force =     0.00065150    0.00101600    0.02060820
     atom    3 type  2   force =    -0.00016208    0.00014061   -0.02095614
     atom    4 type  1   force =     0.00000000    0.00000000    0.00000000
     atom    5 type  2   force =    -0.00046337    0.00128205    0.02031511
     atom    6 type  2   force =     0.00030167   -0.00015710   -0.02077200
     atom    7 type  1   force =     0.00000000    0.00000000    0.00000000
     atom    8 type  2   force =    -0.00227075    0.00107657    0.02067372
     atom    9 type  2   force =     0.00025262    0.00151157   -0.02098926
     atom   10 type  1   force =     0.00000000    0.00000000    0.00000000
     atom   11 type  2   force =     0.00410518    0.02700841    0.01916582
     atom   12 type  2   force =     0.00075352    0.00078658   -0.02127600
     atom   13 type  1   force =     0.00000000    0.00000000    0.00000000
     atom   14 type  2   force =    -0.00110353    0.00034997    0.02090797
     atom   15 type  2   force =     0.00054737    0.00023311   -0.02076445
     atom   16 type  1   force =     0.00000000    0.00000000    0.00000000
     atom   17 type  2   force =     0.00039393    0.00121911    0.02038933
     atom   18 type  2   force =    -0.00001937   -0.00037876   -0.02074709
     atom   19 type  1   force =     0.00000000    0.00000000    0.00000000
     atom   20 type  2   force =     0.00027597    0.00126303   -0.02134070
     atom   21 type  1   force =     0.00000000    0.00000000    0.00000000
     atom   22 type  2   force =     0.00045062   -0.00050343    0.02036865
     atom   23 type  2   force =    -0.00024022    0.00090269   -0.02070671
     atom   24 type  1   force =     0.00000000    0.00000000    0.00000000
     atom   25 type  2   force =     0.00031925    0.00060412    0.02071172
     atom   26 type  2   force =    -0.00027110    0.00039480   -0.02087571
     atom   27 type  1   force =     0.00000000    0.00000000    0.00000000
     atom   28 type  2   force =     0.00049196    0.00088750    0.02123613
     atom   29 type  2   force =    -0.00006234    0.00013355   -0.02062881
     atom   30 type  1   force =     0.00000000    0.00000000    0.00000000
     atom   31 type  2   force =     0.00054930   -0.00018620    0.02089571
     atom   32 type  2   force =    -0.00080691    0.00065886   -0.02089950
     atom   33 type  1   force =     0.00000000    0.00000000    0.00000000
     atom   34 type  2   force =     0.00045582    0.00023458    0.02106259
     atom   35 type  2   force =    -0.00052240    0.00068145   -0.02083655
     atom   36 type  3   force =    -0.00618097   -0.01696998    0.01202706
     The Hubbard contrib.    to forces
     atom    1 type  1   force =     0.00000000    0.00000000    0.00000000
     atom    2 type  2   force =     0.00000000    0.00000000    0.00000000
     atom    3 type  2   force =     0.00000000    0.00000000    0.00000000
     atom    4 type  1   force =     0.00000000    0.00000000    0.00000000
     atom    5 type  2   force =     0.00000000    0.00000000    0.00000000
     atom    6 type  2   force =     0.00000000    0.00000000    0.00000000
     atom    7 type  1   force =     0.00000000    0.00000000    0.00000000
     atom    8 type  2   force =     0.00000000    0.00000000    0.00000000
     atom    9 type  2   force =     0.00000000    0.00000000    0.00000000
     atom   10 type  1   force =     0.00000000    0.00000000    0.00000000
     atom   11 type  2   force =     0.00000000    0.00000000    0.00000000
     atom   12 type  2   force =     0.00000000    0.00000000    0.00000000
     atom   13 type  1   force =     0.00000000    0.00000000    0.00000000
     atom   14 type  2   force =     0.00000000    0.00000000    0.00000000
     atom   15 type  2   force =     0.00000000    0.00000000    0.00000000
     atom   16 type  1   force =     0.00000000    0.00000000    0.00000000
     atom   17 type  2   force =     0.00000000    0.00000000    0.00000000
     atom   18 type  2   force =     0.00000000    0.00000000    0.00000000
     atom   19 type  1   force =     0.00000000    0.00000000    0.00000000
     atom   20 type  2   force =     0.00000000    0.00000000    0.00000000
     atom   21 type  1   force =     0.00000000    0.00000000    0.00000000
     atom   22 type  2   force =     0.00000000    0.00000000    0.00000000
     atom   23 type  2   force =     0.00000000    0.00000000    0.00000000
     atom   24 type  1   force =     0.00000000    0.00000000    0.00000000
     atom   25 type  2   force =     0.00000000    0.00000000    0.00000000
     atom   26 type  2   force =     0.00000000    0.00000000    0.00000000
     atom   27 type  1   force =     0.00000000    0.00000000    0.00000000
     atom   28 type  2   force =     0.00000000    0.00000000    0.00000000
     atom   29 type  2   force =     0.00000000    0.00000000    0.00000000
     atom   30 type  1   force =     0.00000000    0.00000000    0.00000000
     atom   31 type  2   force =     0.00000000    0.00000000    0.00000000
     atom   32 type  2   force =     0.00000000    0.00000000    0.00000000
     atom   33 type  1   force =     0.00000000    0.00000000    0.00000000
     atom   34 type  2   force =     0.00000000    0.00000000    0.00000000
     atom   35 type  2   force =     0.00000000    0.00000000    0.00000000
     atom   36 type  3   force =     0.00000000    0.00000000    0.00000000
     The SCF correction term to forces
     atom    1 type  1   force =    -0.00000413   -0.00000946    0.00009521
     atom    2 type  2   force =    -0.00001402   -0.00000946    0.00003205
     atom    3 type  2   force =    -0.00000150   -0.00001314    0.00000925
     atom    4 type  1   force =    -0.00001933    0.00003014    0.00004415
     atom    5 type  2   force =    -0.00001187    0.00000641    0.00003567
     atom    6 type  2   force =    -0.00000424    0.00001618    0.00000907
     atom    7 type  1   force =    -0.00000770    0.00000887    0.00002704
     atom    8 type  2   force =    -0.00000270    0.00000161    0.00002380
     atom    9 type  2   force =     0.00001027    0.00001050   -0.00000495
     atom   10 type  1   force =    -0.00001558   -0.00002391    0.00005798
     atom   11 type  2   force =    -0.00000291    0.00002242    0.00001748
     atom   12 type  2   force =    -0.00000456   -0.00000267    0.00000163
     atom   13 type  1   force =     0.00001718   -0.00000165    0.00007533
     atom   14 type  2   force =     0.00000660   -0.00000722    0.00003141
     atom   15 type  2   force =    -0.00000258   -0.00001725    0.00001438
     atom   16 type  1   force =    -0.00000365    0.00002254    0.00006386
     atom   17 type  2   force =     0.00002141    0.00000143    0.00003058
     atom   18 type  2   force =     0.00000664    0.00001400    0.00000654
     atom   19 type  1   force =     0.00000496    0.00001264    0.00000998
     atom   20 type  2   force =    -0.00000955    0.00000407   -0.00000627
     atom   21 type  1   force =     0.00000160   -0.00002660    0.00005535
     atom   22 type  2   force =     0.00001868   -0.00000452    0.00001595
     atom   23 type  2   force =     0.00000753   -0.00001375    0.00000851
     atom   24 type  1   force =    -0.00001048   -0.00001246    0.00006139
     atom   25 type  2   force =     0.00000633   -0.00000230    0.00003250
     atom   26 type  2   force =     0.00000419   -0.00000687    0.00000161
     atom   27 type  1   force =     0.00002147    0.00002571    0.00002152
     atom   28 type  2   force =    -0.00000823   -0.00000276    0.00003301
     atom   29 type  2   force =    -0.00000339    0.00001339   -0.00000736
     atom   30 type  1   force =    -0.00001266    0.00001464    0.00000067
     atom   31 type  2   force =     0.00001062    0.00001198    0.00001510
     atom   32 type  2   force =    -0.00000041    0.00001712   -0.00001022
     atom   33 type  1   force =     0.00001424   -0.00003624    0.00003396
     atom   34 type  2   force =    -0.00000799   -0.00000274    0.00001054
     atom   35 type  2   force =    -0.00000216   -0.00002078    0.00000484
     atom   36 type  3   force =    -0.00003686   -0.00002895    0.00005401

     Total force =     0.006370     Total SCF correction =     0.000244
     Energy error            =      8.8E-05 Ry
     Gradient error          =      1.8E-03 Ry/Bohr

     bfgs converged in  21 scf cycles and  20 bfgs steps
     (criteria: energy <  1.0E-04 Ry, force <  1.0E-02 Ry/Bohr)

     End of BFGS Geometry Optimization

     Final energy             =   -2246.3973914651 Ry

     File ./MoS2-V-O.bfgs deleted, as requested
Begin final coordinates

ATOMIC_POSITIONS (angstrom)
Mo            6.5613077412        1.7380538538        2.7745421337
S             8.1446753650        0.8561922115        4.3985210848
S             8.1258766668        0.7838352268        1.2014235582
Mo            8.1625748852        4.4587559796        2.7190172768
S             6.5318659544        3.6625238213        4.3096943170
S             6.5787070689        3.5414237529        1.1185105003
Mo            6.4681655789        7.1088305190        2.7881986124
S             8.1948526985        6.2399307741        4.2919790242
S             8.1364679676        6.3075898261        1.1580262105
Mo            8.1338096750        9.9074843322        2.8469245127
S             6.4626921533        9.2436941120        4.6310162400
S             6.5665634645        8.9625119325        1.2618229492
Mo            3.4286509050        1.7455031225        2.7385788751
S             4.9652778085        0.8601715791        4.3714337902
S             5.0170458754        0.8325902218        1.1598290443
Mo            4.9984962104        4.5117857802        2.6449506285
S             3.4761036119        3.6528716106        4.2906370080
S             3.4441084266        3.5430957532        1.0861474129
Mo            3.4900728339        7.1720369757        2.6652731916
S             5.0410424307        6.3099693003        1.0611774313
Mo            4.9669619859        9.9456199076        2.7713283075
S             3.4381308112        8.9535304216        4.3221656970
S             3.4114802572        9.0378101965        1.1413167313
Mo            0.2690338880        1.7192465501        2.7665197051
S             1.8613884942        0.8412038211        4.3571387085
S             1.8364115714        0.8193672352        1.1658230944
Mo            1.8873410371        4.4765688204        2.6926731483
S             0.3055981425        3.5785834704        4.3133862924
S             0.2775734690        3.5293699233        1.1365265425
Mo            0.3077579250        7.2054651979        2.7539094987
S             1.9572665405        6.2723247615        4.3043114476
S             1.8708239126        6.3233832904        1.1093555604
Mo            1.8389302278        9.9239720756        2.7713897656
S             0.2888343440        8.9943865537        4.3935751628
S             0.2313365275        9.0380699962        1.2011088229
O             6.0996272231        7.6691268371        4.8080905333
End final coordinates

     Writing all to output data dir ./MoS2-V-O.save/

     General routines

     Parallel routines

   This run was terminated on:  20: 9:37   1Nov2023

   JOB DONE.