     Program PWSCF v.7.2 starts on  1Nov2023 at 16: 3:17

     Waiting for input...
     Reading input from standard input
Warning: card &CELL ignored
Warning: card CELL_DYNAMICS = 'BFGS', ignored
Warning: card CELL_DOFREE = '2DXY' ignored
Warning: card / ignored

     Current dimensions of program PWSCF are:
     Max number of different atomic species (ntypx) = 10
     Max number of k-points (npk) =  40000
     Max angular momentum in pseudopotentials (lmaxx) =  4
     file O.pbe-n-kjpaw_psl.0.1.UPF: wavefunction(s)  2P renormalized

     IMPORTANT: XC functional enforced from input :
     Exchange-correlation= RVV10
                           (   1   4  13   4  26   0   0)
     Any further DFT definition will be discarded
     Please, verify this is what you really want

     gamma-point specific algorithms are used
     signal trapping enabled: kill the code with -SIGUSR1 to stop cleanly the simulation

     R & G space division:  proc/nbgrp/npool/nimage =      48
     Subspace diagonalization in iterative solution of the eigenvalue problem:
     one sub-group per band group will be used

     Using Slab Decomposition

     bravais-lattice index     =            0
     lattice parameter (alat)  =      17.8707  a.u.
     unit-cell volume          =   17436.2743 (a.u.)^3
     number of atoms/cell      =           36
     number of atomic types    =            3
     number of electrons       =       312.00
     number of Kohn-Sham states=          187
     kinetic-energy cutoff     =      80.0000  Ry
     charge density cutoff     =     650.0000  Ry
     scf convergence threshold =      1.0E-06
     mixing beta               =       0.7000
     number of iterations used =            8  local-TF  mixing
     energy convergence thresh.=      1.0E-04
     force convergence thresh. =      1.0E-02
     Exchange-correlation= RVV10
                           (   1   4  13   4  26   0   0)
     nstep                     =          200

     celldm(1)=  17.870686  celldm(2)=   0.000000  celldm(3)=   0.000000
     celldm(4)=   0.000000  celldm(5)=   0.000000  celldm(6)=   0.000000

     crystal axes: (cart. coord. in units of alat)
               a(1) = (   1.000000   0.000000   0.000000 )
               a(2) = (   0.000000   1.155671   0.000000 )
               a(3) = (   0.000000   0.000000   2.643601 )

     reciprocal axes: (cart. coord. in units 2 pi/alat)
               b(1) = (  1.000000  0.000000  0.000000 )
               b(2) = (  0.000000  0.865298  0.000000 )
               b(3) = (  0.000000  0.000000  0.378272 )

     PseudoPot. # 1 for Mo read from file:
     ../pseudo/Mo_ONCV_PBE-1.0.oncvpsp.upf
     MD5 check sum: 1b5d28e075c9ccadda658a603575cd1f
     Pseudo is Norm-conserving, Zval = 14.0
     Generated using ONCVPSP code by D. R. Hamann
     Using radial grid of 1526 points,  6 beta functions with:
                l(1) =   0
                l(2) =   0
                l(3) =   1
                l(4) =   1
                l(5) =   2
                l(6) =   2

     PseudoPot. # 2 for S  read from file:
     ../pseudo/s_pbe_v1.4.uspp.F.UPF
     MD5 check sum: 88d86576ff6df21479756cfb9bdac1df
     Pseudo is Ultrasoft + core correction, Zval =  6.0
     Generated by new atomic code, or converted to UPF format
     Using radial grid of  907 points,  6 beta functions with:
                l(1) =   0
                l(2) =   0
                l(3) =   1
                l(4) =   1
                l(5) =   2
                l(6) =   2
     Q(r) pseudized with  8 coefficients,  rinner =    1.300   1.300   1.300
                                                       1.300   1.300

     PseudoPot. # 3 for O  read from file:
     ../pseudo/O.pbe-n-kjpaw_psl.0.1.UPF
     MD5 check sum: 0234752ac141de4415c5fc33072bef88
     Pseudo is Projector augmented-wave + core cor, Zval =  6.0
     Generated using "atomic" code by A. Dal Corso  v.5.0.99 svn rev. 10869
     Shape of augmentation charge: BESSEL
     Using radial grid of 1095 points,  4 beta functions with:
                l(1) =   0
                l(2) =   0
                l(3) =   1
                l(4) =   1
     Q(r) pseudized with 0 coefficients

     atomic species   valence    mass     pseudopotential
        Mo            14.00    95.94000     Mo( 1.00)
        S              6.00    32.06500     S ( 1.00)
        O              6.00    15.99940     O ( 1.00)

     No symmetry found

   Cartesian axes

     site n.     atom                  positions (alat units)
         1           Mo  tau(   1) = (   0.6952221   0.1890506   0.2985846  )
         2           S   tau(   2) = (   0.8646417   0.0856217   0.4689279  )
         3           S   tau(   3) = (   0.8663890   0.0857843   0.1351291  )
         4           Mo  tau(   4) = (   0.8560186   0.4753274   0.2873942  )
         5           S   tau(   5) = (   0.6873294   0.3936244   0.4596353  )
         6           S   tau(   6) = (   0.6929804   0.3713468   0.1185692  )
         7           Mo  tau(   7) = (   0.6862796   0.7633098   0.2825370  )
         8           S   tau(   8) = (   0.8545980   0.6708292   0.4486168  )
         9           S   tau(   9) = (   0.8545123   0.6666874   0.1146125  )
        10           Mo  tau(  10) = (   0.8629403   1.0471007   0.3006803  )
        11           S   tau(  11) = (   0.6868280   0.9456650   0.4634891  )
        12           S   tau(  12) = (   0.6998113   0.9568511   0.1205389  )
        13           Mo  tau(  13) = (   0.3618216   0.1847309   0.2935964  )
        14           S   tau(  14) = (   0.5260962   0.0863870   0.4600448  )
        15           S   tau(  15) = (   0.5348379   0.0894875   0.1297123  )
        16           Mo  tau(  16) = (   0.5265817   0.4772436   0.2784130  )
        17           S   tau(  17) = (   0.3624753   0.3882513   0.4525556  )
        18           S   tau(  18) = (   0.3635411   0.3752055   0.1119148  )
        19           Mo  tau(  19) = (   0.3652268   0.7630864   0.2781795  )
        20           S   tau(  20) = (   0.5269494   0.6690381   0.1096838  )
        21           Mo  tau(  21) = (   0.5300192   1.0470394   0.2900995  )
        22           S   tau(  22) = (   0.3670346   0.9457522   0.4574073  )
        23           S   tau(  23) = (   0.3604225   0.9585725   0.1159032  )
        24           Mo  tau(  24) = (   0.0313099   0.1847895   0.3013130  )
        25           S   tau(  25) = (   0.1956761   0.0838230   0.4650863  )
        26           S   tau(  26) = (   0.1967693   0.0903508   0.1278874  )
        27           Mo  tau(  27) = (   0.1967578   0.4753919   0.2813011  )
        28           S   tau(  28) = (   0.0287851   0.3864324   0.4586755  )
        29           S   tau(  29) = (   0.0244514   0.3729871   0.1239344  )
        30           Mo  tau(  30) = (   0.0286728   0.7631204   0.2856894  )
        31           S   tau(  31) = (   0.2011512   0.6675435   0.4465001  )
        32           S   tau(  32) = (   0.1969214   0.6672839   0.1104564  )
        33           Mo  tau(  33) = (   0.1950294   1.0511147   0.2932237  )
        34           S   tau(  34) = (   0.0312912   0.9612169   0.4667423  )
        35           S   tau(  35) = (   0.0292670   0.9563028   0.1216485  )
        36           O   tau(  36) = (   0.0000000   0.5136314   0.5650415  )

     number of k points=     1  Gaussian smearing, width (Ry)=  0.0100
                       cart. coord. in units 2pi/alat
        k(    1) = (   0.0000000   0.0000000   0.0000000), wk =   2.0000000

     Initial potential from superposition of free atoms

     starting charge     311.9873, renormalised to     312.0000

     negative rho (up, down):  2.745E-04 0.000E+00

Carrying out rVV10 run using the following parameters:
Nqs =      20    Nr_points =    1024   r_max =   100.000
b_value =  6.30000    beta =  0.00901
     q_mesh =  0.00010000  0.00030000  0.00058939  0.00100810
               0.00161396  0.00249058  0.00375900  0.00559430
               0.00824984  0.01209221  0.01765183  0.02569619
               0.03733578  0.05417739  0.07854596  0.11380545
               0.16482331  0.23864234  0.34545298  0.50000000

Gradients computed in Reciprocal space

     Starting wfcs are  216 randomized atomic wfcs
     Checking if some PAW data can be deallocated...

     Self-consistent Calculation

     iteration #  1     ecut=    80.00 Ry     beta= 0.70
     Davidson diagonalization with overlap
     ethr =  1.00E-02,  avg # of iterations =  2.0

     Threshold (ethr) on eigenvalues was too large:
     Diagonalizing with lowered threshold

     Davidson diagonalization with overlap
     ethr =  4.45E-04,  avg # of iterations =  4.0

[...]

     total energy              =   -2246.27146230 Ry
     estimated scf accuracy    <       1.63635802 Ry

[...]

     End of self-consistent calculation

          k = 0.0000 0.0000 0.0000 (105382 PWs)   bands (ev):

   -63.0375 -62.9619 -62.9451 -62.9340 -62.9288 -62.9190 -62.8817 -62.8687
   -62.8554 -62.8420 -62.8244 -62.8162 -37.3431 -37.2810 -37.2439 -37.2419
   -37.2348 -37.2178 -37.1924 -37.1637 -37.1573 -37.1460 -37.1409 -37.1280
   -37.1208 -37.1112 -37.1082 -37.0997 -37.0949 -37.0882 -37.0576 -37.0423
   -37.0284 -37.0207 -37.0091 -37.0051 -37.0007 -36.9913 -36.9878 -36.9816
   -36.9643 -36.9629 -36.9542 -36.9305 -36.9168 -36.8780 -36.8347 -36.7777
   -21.6148 -16.0157 -15.2566 -15.1812 -15.0511 -14.9612 -14.8623 -14.6263
   -14.5552 -14.5430 -14.4896 -14.4551 -14.4085 -14.3779 -14.3221 -14.2459
   -14.2019 -14.1946 -14.1289 -14.0480 -13.9344 -13.9008 -13.8842 -13.7632
    -8.0886  -7.7700  -7.6485  -7.5400  -7.4476  -7.3499  -7.3404  -7.2584
    -7.2322  -7.0524  -7.0196  -6.8501  -6.8180  -6.7561  -6.7006  -6.6280
    -6.5215  -6.5041  -6.3573  -6.3148  -6.1615  -6.0832  -6.0276  -5.9903
    -5.8734  -5.8317  -5.8022  -5.7997  -5.7507  -5.7399  -5.7026  -5.6384
    -5.5583  -5.5252  -5.4619  -5.3364  -5.2839  -5.2511  -5.1601  -5.0683
    -5.0555  -5.0137  -4.9178  -4.7744  -4.7351  -4.5790  -4.4808  -4.4384
    -4.3975  -4.3386  -4.1982  -4.1213  -3.9886  -3.9378  -3.9097  -3.8569
    -3.8381  -3.7781  -3.7330  -3.6859  -3.6663  -3.5895  -3.5653  -3.5446
    -3.4801  -3.4361  -3.3036  -3.3020  -3.0546  -3.0390  -2.9695  -2.8882
    -2.8500  -2.7909  -2.7525  -2.7253  -2.7210  -2.6866  -2.6064  -2.4382
    -2.1699  -2.0584  -2.0451  -1.8194  -0.9327  -0.8410  -0.7708  -0.2715
    -0.1978  -0.1825  -0.1126   0.0460   0.0704   0.1357   0.1536   0.1662
     0.1958   0.2382   0.3490   0.3897   0.4559   0.4776   0.5537   0.5574
     0.6084   0.6503   0.6832   0.7053   0.7478   0.7904   0.8421   0.8791
     0.9215   0.9791   1.2091

     the Fermi energy is    -1.3761 ev

!    total energy              =   -2246.29436773 Ry
     estimated scf accuracy    <       0.00000074 Ry
     smearing contrib. (-TS)   =      -0.00000028 Ry
     internal energy E=F+TS    =   -2246.29436745 Ry

     The total energy is F=E-TS. E is the sum of the following terms:
     one-electron contribution =  -18455.03741872 Ry
     hartree contribution      =    9215.54005553 Ry
     xc contribution           =    -392.06509551 Ry
     ewald contribution        =    7395.13141742 Ry
[...]
     atom    3 type  2   force =    -0.01728894   -0.15968243  -38.19527958
     atom    4 type  1   force =    -1.03825589    0.72071233   -3.89956650
     atom    5 type  2   force =    -1.77681180    1.13189836   37.61484080
     atom    6 type  2   force =     0.15476521   -0.46591523  -38.87859623
     atom    7 type  1   force =    -3.13055168   -1.39446093    1.53618789
     atom    8 type  2   force =    -1.76310322    1.16843806   37.57959635
     atom    9 type  2   force =     0.30736455    0.22920908  -38.81347873
     atom   10 type  1   force =    -0.58316015   -0.87848251    2.37789790
     atom   11 type  2   force =    -0.59070500   -1.43637960   38.49541052
     atom   12 type  2   force =     0.15121882    0.35616359  -38.29877415
     atom   13 type  1   force =     0.65365777    0.11657075    1.18324740
     atom   14 type  2   force =    -0.00177905   -0.30764404   38.41054078
     atom   15 type  2   force =     0.00348683   -0.26179023  -37.86930061
     atom   16 type  1   force =    -0.00267616    3.77118110    0.07914170
     atom   17 type  2   force =     1.77362553    1.13608278   37.58537975
     atom   18 type  2   force =    -0.14703869   -0.46699845  -38.91573466
     atom   19 type  1   force =     3.13138758   -1.40003273    1.45108795
     atom   20 type  2   force =    -0.00354354    0.13019903  -39.08334686
     atom   21 type  1   force =    -0.00390836   -0.37995574    0.89954144
     atom   22 type  2   force =     0.58295357   -1.44038635   38.48602030
     atom   23 type  2   force =    -0.14583498    0.35566805  -38.30672330
     atom   24 type  1   force =    -0.02062690   -0.74446144   -1.37110023
     atom   25 type  2   force =     0.76714503   -0.84807773   38.34107098
     atom   26 type  2   force =     0.01697978   -0.16024152  -38.21754826
     atom   27 type  1   force =     1.04453477    0.73987016   -4.05918561
     atom   28 type  2   force =    -0.01593006    0.18882070   27.77739611
     atom   29 type  2   force =    -0.00312770   -0.22629104  -38.22918417
     atom   30 type  1   force =     0.00958590    0.40060594    0.40577584
     atom   31 type  2   force =     1.76721359    1.16545613   37.55020922
     atom   32 type  2   force =    -0.31226467    0.23456597  -38.82310201
     atom   33 type  1   force =     0.57279319   -0.89298043    2.35050212
     atom   34 type  2   force =     0.01112696   -0.45636343   38.60460494
     atom   35 type  2   force =     0.00043924    0.21525915  -37.78161001
     atom   36 type  3   force =     0.01330340    0.57471025   50.27964001
     The local contribution  to forces
     atom    1 type  1   force =     0.65283449   -0.14915397   -1.35969979
     atom    2 type  2   force =     0.75402758    0.84771252  -38.11827437
     atom    3 type  2   force =     0.01978846    0.16848120   37.94982108
     atom    4 type  1   force =     1.02834474   -0.71893163    3.87795942
     atom    5 type  2   force =     1.77292250   -1.11291384  -37.37767415
     atom    6 type  2   force =    -0.15447244    0.46738271   38.63596322
     atom    7 type  1   force =     3.14538831    1.39134577   -1.51639876
     atom    8 type  2   force =     1.75668478   -1.17129889  -37.33134453
     atom    9 type  2   force =    -0.30146319   -0.21607937   38.56697708
     atom   10 type  1   force =     0.58624472    0.87458847   -2.38103249
     atom   11 type  2   force =     0.58393624    1.43708757  -38.25443408
     atom   12 type  2   force =    -0.14287623   -0.34194400   38.05569692
     atom   13 type  1   force =    -0.65554546   -0.14179167   -1.17598271
     atom   14 type  2   force =     0.00162492    0.31617305  -38.16152444
     atom   15 type  2   force =    -0.00342419    0.26968500   37.62587352
     atom   16 type  1   force =     0.00247116   -3.80601123   -0.05653134
     atom   17 type  2   force =    -1.77007247   -1.11702106  -37.34829764
     atom   18 type  2   force =     0.14683203    0.46837282   38.67315540
     atom   19 type  1   force =    -3.14578048    1.39627727   -1.43139558
     atom   20 type  2   force =     0.00367753   -0.11450387   38.83905314
     atom   21 type  1   force =     0.00386528    0.35022296   -0.90186736
     atom   22 type  2   force =    -0.57616835    1.44096978  -38.24508324
     atom   23 type  2   force =     0.13762538   -0.34164339   38.06361330
     atom   24 type  1   force =     0.02068592    0.72260676    1.35645760
     atom   25 type  2   force =    -0.76695851    0.85704615  -38.09175613
     atom   26 type  2   force =    -0.01959409    0.16886695   37.97198594
     atom   27 type  1   force =    -1.03531395   -0.73765641    4.03788520
     atom   28 type  2   force =     0.01499669   -0.20044706  -28.06110963
     atom   29 type  2   force =     0.00292257    0.23354540   37.97352328
     atom   30 type  1   force =    -0.00931899   -0.41765766   -0.41058426
     atom   31 type  2   force =    -1.76057971   -1.16842995  -37.30197249
     atom   32 type  2   force =     0.30637641   -0.22137387   38.57642184
     atom   33 type  1   force =    -0.57520455    0.88869232   -2.35351865
     atom   34 type  2   force =    -0.01102482    0.46450446  -38.35000093
     atom   35 type  2   force =    -0.00041712   -0.20067280   37.53514763
     atom   36 type  3   force =    -0.00905691   -0.50676650  -47.98385296
     The core correction contribution to forces
     atom    1 type  1   force =     0.00000000    0.00000000    0.00000000
     atom    2 type  2   force =    -0.00008862    0.00040991    0.02119723
     atom    3 type  2   force =     0.00004744    0.00035948   -0.02089164
     atom    4 type  1   force =     0.00000000    0.00000000    0.00000000
     atom    5 type  2   force =    -0.00032639    0.00095419    0.02076122
     atom    6 type  2   force =     0.00018384   -0.00045350   -0.02074591
     atom    7 type  1   force =     0.00000000    0.00000000    0.00000000
     atom    8 type  2   force =    -0.00030535    0.00007783    0.02120805
     atom    9 type  2   force =     0.00066176    0.00083138   -0.02092570
     atom   10 type  1   force =     0.00000000    0.00000000    0.00000000
     atom   11 type  2   force =    -0.00018337   -0.00028248    0.02077704
     atom   12 type  2   force =     0.00064965    0.00105065   -0.02090233
     atom   13 type  1   force =     0.00000000    0.00000000    0.00000000
     atom   14 type  2   force =    -0.00002714    0.00013640    0.02100469
     atom   15 type  2   force =     0.00003436    0.00030099   -0.02072218
     atom   16 type  1   force =     0.00000000    0.00000000    0.00000000
     atom   17 type  2   force =     0.00032507    0.00094057    0.02076046
     atom   18 type  2   force =    -0.00016210   -0.00043165   -0.02075509
     atom   19 type  1   force =     0.00000000    0.00000000    0.00000000
     atom   20 type  2   force =     0.00000354    0.00076109   -0.02128216
     atom   21 type  1   force =     0.00000000    0.00000000    0.00000000
     atom   22 type  2   force =     0.00018146   -0.00027149    0.02078269
     atom   23 type  2   force =    -0.00065803    0.00107409   -0.02090164
     atom   24 type  1   force =     0.00000000    0.00000000    0.00000000
     atom   25 type  2   force =     0.00011963    0.00044494    0.02119568
     atom   26 type  2   force =    -0.00004258    0.00035904   -0.02089625
     atom   27 type  1   force =     0.00000000    0.00000000    0.00000000
     atom   28 type  2   force =    -0.00001445   -0.00048974   -0.00987103
     atom   29 type  2   force =    -0.00003757    0.00007432   -0.02115841
     atom   30 type  1   force =     0.00000000    0.00000000    0.00000000
     atom   31 type  2   force =     0.00030123    0.00007500    0.02120871
     atom   32 type  2   force =    -0.00069301    0.00082707   -0.02092105
     atom   33 type  1   force =     0.00000000    0.00000000    0.00000000
     atom   34 type  2   force =    -0.00001062    0.00032811    0.02128371
     atom   35 type  2   force =    -0.00000416    0.00090147   -0.02089226
     atom   36 type  3   force =     0.00004710    0.00072970    0.02462542
     The Hubbard contrib.    to forces
     atom    1 type  1   force =     0.00000000    0.00000000    0.00000000
     atom    2 type  2   force =     0.00000000    0.00000000    0.00000000
     atom    3 type  2   force =     0.00000000    0.00000000    0.00000000
     atom    4 type  1   force =     0.00000000    0.00000000    0.00000000
     atom    5 type  2   force =     0.00000000    0.00000000    0.00000000
     atom    6 type  2   force =     0.00000000    0.00000000    0.00000000
     atom    7 type  1   force =     0.00000000    0.00000000    0.00000000
     atom    8 type  2   force =     0.00000000    0.00000000    0.00000000
     atom    9 type  2   force =     0.00000000    0.00000000    0.00000000
     atom   10 type  1   force =     0.00000000    0.00000000    0.00000000
     atom   11 type  2   force =     0.00000000    0.00000000    0.00000000
     atom   12 type  2   force =     0.00000000    0.00000000    0.00000000
     atom   13 type  1   force =     0.00000000    0.00000000    0.00000000
     atom   14 type  2   force =     0.00000000    0.00000000    0.00000000
     atom   15 type  2   force =     0.00000000    0.00000000    0.00000000
     atom   16 type  1   force =     0.00000000    0.00000000    0.00000000
     atom   17 type  2   force =     0.00000000    0.00000000    0.00000000
     atom   18 type  2   force =     0.00000000    0.00000000    0.00000000
     atom   19 type  1   force =     0.00000000    0.00000000    0.00000000
     atom   20 type  2   force =     0.00000000    0.00000000    0.00000000
     atom   21 type  1   force =     0.00000000    0.00000000    0.00000000
     atom   22 type  2   force =     0.00000000    0.00000000    0.00000000
     atom   23 type  2   force =     0.00000000    0.00000000    0.00000000
     atom   24 type  1   force =     0.00000000    0.00000000    0.00000000
     atom   25 type  2   force =     0.00000000    0.00000000    0.00000000
     atom   26 type  2   force =     0.00000000    0.00000000    0.00000000
     atom   27 type  1   force =     0.00000000    0.00000000    0.00000000
     atom   28 type  2   force =     0.00000000    0.00000000    0.00000000
     atom   29 type  2   force =     0.00000000    0.00000000    0.00000000
     atom   30 type  1   force =     0.00000000    0.00000000    0.00000000
     atom   31 type  2   force =     0.00000000    0.00000000    0.00000000
     atom   32 type  2   force =     0.00000000    0.00000000    0.00000000
     atom   33 type  1   force =     0.00000000    0.00000000    0.00000000
     atom   34 type  2   force =     0.00000000    0.00000000    0.00000000
     atom   35 type  2   force =     0.00000000    0.00000000    0.00000000
     atom   36 type  3   force =     0.00000000    0.00000000    0.00000000
     The SCF correction term to forces
     atom    1 type  1   force =     0.00000339    0.00003078    0.00002045
     atom    2 type  2   force =     0.00000088    0.00000232    0.00001209
     atom    3 type  2   force =    -0.00000378   -0.00000190    0.00000468
     atom    4 type  1   force =     0.00000359    0.00004940    0.00002535
     atom    5 type  2   force =     0.00000894    0.00002530    0.00001158
     atom    6 type  2   force =     0.00000662    0.00002618    0.00000849
     atom    7 type  1   force =     0.00001179   -0.00003456    0.00002320
     atom    8 type  2   force =     0.00000953   -0.00001608    0.00002078
     atom    9 type  2   force =     0.00000482   -0.00001578    0.00000397
     atom   10 type  1   force =     0.00000464   -0.00003437    0.00002757
     atom   11 type  2   force =     0.00000295   -0.00001244    0.00001513
     atom   12 type  2   force =    -0.00000012   -0.00001594    0.00000113
     atom   13 type  1   force =    -0.00000291    0.00002377    0.00002635
     atom   14 type  2   force =    -0.00000030    0.00000162    0.00001817
     atom   15 type  2   force =     0.00000118    0.00000147    0.00000272
     atom   16 type  1   force =     0.00000132    0.00003567    0.00002981
     atom   17 type  2   force =    -0.00001038    0.00002535    0.00001332
     atom   18 type  2   force =    -0.00000273    0.00002686    0.00000838
     atom   19 type  1   force =    -0.00001551   -0.00003743    0.00002343
     atom   20 type  2   force =    -0.00000070   -0.00000704   -0.00000163
     atom   21 type  1   force =     0.00000337   -0.00003181    0.00003031
     atom   22 type  2   force =    -0.00000284   -0.00001335    0.00001857
     atom   23 type  2   force =     0.00000009   -0.00001617    0.00000018
     atom   24 type  1   force =     0.00000075    0.00003863    0.00002008
     atom   25 type  2   force =    -0.00000164    0.00000102    0.00001420
     atom   26 type  2   force =    -0.00000088   -0.00000332    0.00000940
     atom   27 type  1   force =    -0.00000776    0.00005398    0.00002750
     atom   28 type  2   force =    -0.00000029    0.00005421    0.00001423
     atom   29 type  2   force =    -0.00000048    0.00002498    0.00001570
     atom   30 type  1   force =     0.00000423   -0.00006258    0.00002786
     atom   31 type  2   force =    -0.00000907   -0.00001684    0.00001834
     atom   32 type  2   force =    -0.00000330   -0.00001331    0.00000734
     atom   33 type  1   force =    -0.00000776   -0.00003051    0.00002635
     atom   34 type  2   force =     0.00000019   -0.00001944    0.00001997
     atom   35 type  2   force =    -0.00000096   -0.00001644    0.00000427
     atom   36 type  3   force =     0.00000253    0.00010894    0.00004714

     Total force =     0.005586     Total SCF correction =     0.000234
     Energy error            =      7.5E-05 Ry
     Gradient error          =      1.8E-03 Ry/Bohr

     bfgs converged in  23 scf cycles and  22 bfgs steps
     (criteria: energy <  1.0E-04 Ry, force <  1.0E-02 Ry/Bohr)

     End of BFGS Geometry Optimization

     Final energy             =   -2246.4528442655 Ry

     File ./MoS2-V-O.bfgs deleted, as requested
Begin final coordinates

ATOMIC_POSITIONS (angstrom)
Mo            6.5562821186        1.7934475904        2.7641627971
S             8.1239789652        0.8819590699        4.3794317389
S             8.1166412800        0.8608661345        1.1730374816
Mo            8.0916787363        4.5521837204        2.6903217281
S             6.5205220705        3.7132674047        4.3015982719
S             6.5412161240        3.5863767654        1.0983674485
Mo            6.5118969340        7.2211025656        2.6679884201
S             8.0784497002        6.3373043057        4.3023943181
S             8.1308838382        6.3797781501        1.0971478688
Mo            8.1209776698        9.9705252200        2.7792072264
S             6.5117199655        8.9762361965        4.3356308437
S             6.5771671508        9.0684947783        1.1340623841
Mo            3.4212598354        1.7936188546        2.7610985458
S             4.9870522585        0.8551824968        4.3538243488
S             4.9906219337        0.8699605117        1.1766268367
Mo            4.9891191444        4.5636833519        2.6478799139
S             3.4587487366        3.7128842858        4.2994346637
S             3.4380653565        3.5879041885        1.0954719451
Mo            3.4612545045        7.2233392019        2.6665309367
S             4.9871880279        6.3522687443        1.0437315380
Mo            4.9873199826        9.9387106649        2.7422999740
S             3.4609691802        8.9788511326        4.3349588158
S             3.3955806109        9.0717742717        1.1334183475
Mo            0.2598738072        1.7379801367        2.7592750524
S             1.8532228189        0.8845144772        4.3771820242
S             1.8588911327        0.8622155618        1.1715471428
Mo            1.8872138866        4.5519457183        2.6874706349
S             0.2637914737        3.6444132418        4.2121208701
S             0.2589647783        3.5859797092        1.1589529104
Mo            0.2584582269        7.2476024358        2.7371920142
S             1.8971458407        6.3379577498        4.3006050423
S             1.8422106549        6.3804186299        1.0962017350
Mo            1.8519754036        9.9720551465        2.7784445988
S             0.2576309252        9.0564302378        4.3676107972
S             0.2577746128        9.0931488354        1.1851079028
O             0.2665993262        3.6938538131        5.7100027531
End final coordinates

     Writing all to output data dir ./MoS2-V-O.save/

     General routines

     Parallel routines

   This run was terminated on:  16:45:16   1Nov2023

   JOB DONE.