     Program PWSCF v.7.2 starts on  4Nov2023 at  9: 0:42

     Waiting for input...
     Reading input from standard input
Warning: card &CELL ignored
Warning: card CELL_DYNAMICS = 'BFGS', ignored
Warning: card CELL_DOFREE = '2DXY' ignored
Warning: card / ignored

     Current dimensions of program PWSCF are:
     Max number of different atomic species (ntypx) = 10
     Max number of k-points (npk) =  40000
     Max angular momentum in pseudopotentials (lmaxx) =  4

     IMPORTANT: XC functional enforced from input :
     Exchange-correlation= RVV10
                           (   1   4  13   4  26   0   0)
     Any further DFT definition will be discarded
     Please, verify this is what you really want

     gamma-point specific algorithms are used
     signal trapping enabled: kill the code with -SIGUSR1 to stop cleanly the simulation

     R & G space division:  proc/nbgrp/npool/nimage =      48
     Subspace diagonalization in iterative solution of the eigenvalue problem:
     one sub-group per band group will be used

     Using Slab Decomposition

     bravais-lattice index     =            0
     lattice parameter (alat)  =      17.8707  a.u.
     unit-cell volume          =   17436.2743 (a.u.)^3
     number of atoms/cell      =           36
     number of atomic types    =            3
     number of electrons       =       307.00
     number of Kohn-Sham states=          185
     kinetic-energy cutoff     =      80.0000  Ry
     charge density cutoff     =     400.0000  Ry
     scf convergence threshold =      1.0E-06
     mixing beta               =       0.7000
     number of iterations used =            8  local-TF  mixing
     energy convergence thresh.=      1.0E-04
     force convergence thresh. =      1.0E-02
     Exchange-correlation= RVV10
                           (   1   4  13   4  26   0   0)
     nstep                     =          200

     celldm(1)=  17.870686  celldm(2)=   0.000000  celldm(3)=   0.000000
     celldm(4)=   0.000000  celldm(5)=   0.000000  celldm(6)=   0.000000

     crystal axes: (cart. coord. in units of alat)
               a(1) = (   1.000000   0.000000   0.000000 )
               a(2) = (   0.000000   1.155671   0.000000 )
               a(3) = (   0.000000   0.000000   2.643601 )

     reciprocal axes: (cart. coord. in units 2 pi/alat)
               b(1) = (  1.000000  0.000000  0.000000 )
               b(2) = (  0.000000  0.865298  0.000000 )
               b(3) = (  0.000000  0.000000  0.378272 )

     PseudoPot. # 1 for Mo read from file:
     ../pseudo/Mo_ONCV_PBE-1.0.oncvpsp.upf
     MD5 check sum: 1b5d28e075c9ccadda658a603575cd1f
     Pseudo is Norm-conserving, Zval = 14.0
     Generated using ONCVPSP code by D. R. Hamann
     Using radial grid of 1526 points,  6 beta functions with:
                l(1) =   0
                l(2) =   0
                l(3) =   1
                l(4) =   1
                l(5) =   2
                l(6) =   2

     PseudoPot. # 2 for S  read from file:
     ../pseudo/s_pbe_v1.4.uspp.F.UPF
     MD5 check sum: 88d86576ff6df21479756cfb9bdac1df
     Pseudo is Ultrasoft + core correction, Zval =  6.0
     Generated by new atomic code, or converted to UPF format
     Using radial grid of  907 points,  6 beta functions with:
                l(1) =   0
                l(2) =   0
                l(3) =   1
                l(4) =   1
                l(5) =   2
                l(6) =   2
     Q(r) pseudized with  8 coefficients,  rinner =    1.300   1.300   1.300
                                                       1.300   1.300

     PseudoPot. # 3 for H  read from file:
     ../pseudo/H_ONCV_PBE-1.0.oncvpsp.upf
     MD5 check sum: 1790becc920ee074925cf490c71280fe
     Pseudo is Norm-conserving, Zval =  1.0
     Generated using ONCVPSP code by D. R. Hamann
     Using radial grid of 1166 points,  2 beta functions with:
                l(1) =   0
                l(2) =   0

     atomic species   valence    mass     pseudopotential
        Mo            14.00    95.94000     Mo( 1.00)
        S              6.00    32.06500     S ( 1.00)
        H              1.00     1.00794     H ( 1.00)

     No symmetry found

   Cartesian axes

     site n.     atom                  positions (alat units)
         1           Mo  tau(   1) = (   0.6952221   0.1890506   0.2985846  )
         2           S   tau(   2) = (   0.8646417   0.0856217   0.4689279  )
         3           S   tau(   3) = (   0.8663890   0.0857843   0.1351291  )
         4           Mo  tau(   4) = (   0.8560186   0.4753274   0.2873942  )
         5           S   tau(   5) = (   0.6873294   0.3936244   0.4596353  )
         6           S   tau(   6) = (   0.6929804   0.3713468   0.1185692  )
         7           Mo  tau(   7) = (   0.6862796   0.7633098   0.2825370  )
         8           S   tau(   8) = (   0.8545980   0.6708292   0.4486168  )
         9           S   tau(   9) = (   0.8545123   0.6666874   0.1146125  )
        10           Mo  tau(  10) = (   0.8629403   1.0471007   0.3006803  )
        11           S   tau(  11) = (   0.6868280   0.9456650   0.4634891  )
        12           S   tau(  12) = (   0.6998113   0.9568511   0.1205389  )
        13           Mo  tau(  13) = (   0.3618216   0.1847309   0.2935964  )
        14           S   tau(  14) = (   0.5260962   0.0863870   0.4600448  )
        15           S   tau(  15) = (   0.5348379   0.0894875   0.1297123  )
        16           Mo  tau(  16) = (   0.5265817   0.4772436   0.2784130  )
        17           S   tau(  17) = (   0.3624753   0.3882513   0.4525556  )
        18           S   tau(  18) = (   0.3635411   0.3752055   0.1119148  )
        19           Mo  tau(  19) = (   0.3652268   0.7630864   0.2781795  )
        20           S   tau(  20) = (   0.5269494   0.6690381   0.1096838  )
        21           Mo  tau(  21) = (   0.5300192   1.0470394   0.2900995  )
        22           S   tau(  22) = (   0.3670346   0.9457522   0.4574073  )
        23           S   tau(  23) = (   0.3604225   0.9585725   0.1159032  )
        24           Mo  tau(  24) = (   0.0313099   0.1847895   0.3013130  )
        25           S   tau(  25) = (   0.1956761   0.0838230   0.4650863  )
        26           S   tau(  26) = (   0.1967693   0.0903508   0.1278874  )
        27           Mo  tau(  27) = (   0.1967578   0.4753919   0.2813011  )
        28           S   tau(  28) = (   0.0287851   0.3864324   0.4586755  )
        29           S   tau(  29) = (   0.0244514   0.3729871   0.1239344  )
        30           Mo  tau(  30) = (   0.0286728   0.7631204   0.2856894  )
        31           S   tau(  31) = (   0.2011512   0.6675435   0.4465001  )
        32           S   tau(  32) = (   0.1969214   0.6672839   0.1104564  )
        33           Mo  tau(  33) = (   0.1950294   1.0511147   0.2932237  )
        34           S   tau(  34) = (   0.0312912   0.9612169   0.4667423  )
        35           S   tau(  35) = (   0.0292670   0.9563028   0.1216485  )
        36           H   tau(  36) = (   0.2222222   1.0272628   0.5792558  )

     number of k points=     1  Gaussian smearing, width (Ry)=  0.0100
                       cart. coord. in units 2pi/alat
        k(    1) = (   0.0000000   0.0000000   0.0000000), wk =   2.0000000

     Initial potential from superposition of free atoms

     starting charge     306.9873, renormalised to     307.0000

     negative rho (up, down):  1.406E-04 0.000E+00

Carrying out rVV10 run using the following parameters:
Nqs =      20    Nr_points =    1024   r_max =   100.000
b_value =  6.30000    beta =  0.00901
     q_mesh =  0.00010000  0.00030000  0.00058939  0.00100810
               0.00161396  0.00249058  0.00375900  0.00559430
               0.00824984  0.01209221  0.01765183  0.02569619
               0.03733578  0.05417739  0.07854596  0.11380545
               0.16482331  0.23864234  0.34545298  0.50000000

Gradients computed in Reciprocal space

     Starting wfcs are  213 randomized atomic wfcs

     Self-consistent Calculation

     iteration #  1     ecut=    80.00 Ry     beta= 0.70
     Davidson diagonalization with overlap
     ethr =  1.00E-02,  avg # of iterations =  2.0

     Threshold (ethr) on eigenvalues was too large:
     Diagonalizing with lowered threshold

     Davidson diagonalization with overlap
     ethr =  3.66E-04,  avg # of iterations =  4.0

[...]

     total energy              =   -2205.55364930 Ry
     estimated scf accuracy    <       1.42144917 Ry

[...]

     End of self-consistent calculation

          k = 0.0000 0.0000 0.0000 (105382 PWs)   bands (ev):

   -62.9131 -62.9012 -62.8873 -62.8694 -62.8595 -62.8464 -62.8345 -62.8210
   -62.8071 -62.7901 -62.7867 -62.7759 -37.2525 -37.1883 -37.1679 -37.1650
   -37.1532 -37.1314 -37.1160 -37.0942 -37.0930 -37.0871 -37.0819 -37.0626
   -37.0598 -37.0561 -37.0443 -37.0316 -37.0270 -37.0215 -37.0078 -37.0011
   -36.9798 -36.9738 -36.9629 -36.9534 -36.9499 -36.9454 -36.9392 -36.9286
   -36.9214 -36.9049 -36.8882 -36.8666 -36.8637 -36.8231 -36.7728 -36.7335
   -16.0260 -15.2789 -15.1477 -15.0358 -14.9477 -14.8501 -14.5912 -14.5319
   -14.4836 -14.4471 -14.4088 -14.3761 -14.3442 -14.3190 -14.1868 -14.1597
   -14.1379 -14.1200 -14.0493 -13.9364 -13.8644 -13.8499 -13.8178  -7.8569
    -7.6825  -7.4270  -7.3256  -7.3107  -7.2612  -7.2129  -7.1376  -7.0229
    -6.8503  -6.8393  -6.7874  -6.7207  -6.5763  -6.5287  -6.5007  -6.4377
    -6.2880  -6.2797  -6.0684  -5.9702  -5.9325  -5.8927  -5.8449  -5.8119
    -5.8014  -5.7358  -5.7201  -5.6770  -5.6296  -5.5556  -5.5447  -5.4882
    -5.4508  -5.4043  -5.2197  -5.1828  -5.1134  -5.0386  -5.0088  -4.9561
    -4.9238  -4.8518  -4.6784  -4.5406  -4.3813  -4.3295  -4.2994  -4.2709
    -4.2311  -4.0810  -4.0389  -3.8581  -3.8301  -3.8170  -3.7488  -3.7222
    -3.6874  -3.5826  -3.5739  -3.5170  -3.5063  -3.4854  -3.4622  -3.3982
    -3.3809  -3.2188  -3.1463  -2.9453  -2.9058  -2.8204  -2.7884  -2.7516
    -2.7343  -2.6878  -2.6625  -2.6523  -2.5927  -2.3126  -2.0588  -2.0057
    -1.9607  -1.1543  -0.8384  -0.6560  -0.1975  -0.1472  -0.1123  -0.0613
     0.0439   0.1220   0.1338   0.2091   0.2373   0.2846   0.3344   0.3959
     0.4634   0.4969   0.5255   0.5452   0.5858   0.6491   0.6940   0.7259
     0.7404   0.7773   0.8237   0.8559   0.9311   0.9734   1.0331   1.1437
     1.3526

     the Fermi energy is    -1.1544 ev

!    total energy              =   -2205.49042850 Ry
     estimated scf accuracy    <       0.00000043 Ry
     smearing contrib. (-TS)   =      -0.00566750 Ry
     internal energy E=F+TS    =   -2205.48476100 Ry

     The total energy is F=E-TS. E is the sum of the following terms:
     one-electron contribution =  -18043.54629685 Ry
     hartree contribution      =    9008.32492495 Ry
     xc contribution           =    -385.19388260 Ry
     ewald contribution        =    7214.93049350 Ry

     convergence has been achieved in  14 iterations

[...]

     Forces acting on atoms (cartesian axes, Ry/au):

     atom    1 type  1   force =     0.01320832   -0.01773405    0.00540387
     atom    2 type  2   force =    -0.01731748    0.01780250    0.00123944
[...]
     atom    3 type  2   force =     0.06319955   -0.18762669  -37.34407836
     atom    4 type  1   force =     0.07932332    0.51443126    0.32101404
     atom    5 type  2   force =    -0.90948464    1.22547217   38.68854033
     atom    6 type  2   force =     0.18346687   -0.40644290  -38.28922285
     atom    7 type  1   force =    -3.15538836   -0.88147332    2.87728862
     atom    8 type  2   force =    -1.05186030    0.26480919   38.31697655
     atom    9 type  2   force =     0.32923579    0.17662362  -38.04414749
     atom   10 type  1   force =    -0.76895718   -0.65393611    3.22366358
     atom   11 type  2   force =    -0.53823234   -1.62437878   38.28162564
     atom   12 type  2   force =     0.13336930    0.10922452  -37.55911059
     atom   13 type  1   force =     0.06262885    0.79140153    2.71173900
     atom   14 type  2   force =    -0.00753353    0.00011556   38.78257776
     atom   15 type  2   force =    -0.03137194   -0.13694634  -37.59538885
     atom   16 type  1   force =    -1.08776805    3.65416056    1.57307617
     atom   17 type  2   force =     0.82012247    1.46516121   38.12090157
     atom   18 type  2   force =    -0.13873391   -0.22629463  -37.81414818
     atom   19 type  1   force =     2.93050025   -2.21619378    0.40605900
     atom   20 type  2   force =    -0.09617752    0.14704719  -38.62842518
     atom   21 type  1   force =     0.26156453   -0.90825498    1.05868213
     atom   22 type  2   force =     0.57859915   -1.81515505   35.93165249
     atom   23 type  2   force =    -0.11623366    0.32129836  -37.67283412
     atom   24 type  1   force =     0.04391535    0.33397182    2.97989592
     atom   25 type  2   force =     0.23140369    0.20354082   39.06186829
     atom   26 type  2   force =    -0.00622864   -0.05771682  -37.42923850
     atom   27 type  1   force =     0.77080317    0.68190655    0.70976619
     atom   28 type  2   force =     0.10915234    0.61900077   38.39440412
     atom   29 type  2   force =     0.06575136   -0.16866803  -37.73249899
     atom   30 type  1   force =     0.03928866   -0.61427116    1.37754064
     atom   31 type  2   force =     1.32964988    0.07061583   37.91366747
     atom   32 type  2   force =    -0.27972132   -0.00418247  -38.08286398
     atom   33 type  1   force =     0.46626895   -0.60068321    3.29297450
     atom   34 type  2   force =    -0.04265010   -0.65952091   38.91810647
     atom   35 type  2   force =     0.01336258    0.16276767  -37.50532108
     atom   36 type  3   force =     0.07620994   -0.05428052    8.63518111
     The local contribution  to forces
     atom    1 type  1   force =     0.16008179   -0.51938148   -3.07914975
     atom    2 type  2   force =     0.19878565    0.02740976  -38.79610163
     atom    3 type  2   force =    -0.06104966    0.19804167   37.09658293
     atom    4 type  1   force =    -0.07970023   -0.52658176   -0.32379375
     atom    5 type  2   force =     0.90680109   -1.19963222  -38.45321403
     atom    6 type  2   force =    -0.18728068    0.41060681   38.04913960
     atom    7 type  1   force =     3.19388611    0.88585863   -2.85346783
     atom    8 type  2   force =     1.04000899   -0.26820427  -38.07346572
     atom    9 type  2   force =    -0.32787001   -0.16287462   37.79865562
     atom   10 type  1   force =     0.76920983    0.64809377   -3.22411760
     atom   11 type  2   force =     0.53945044    1.62303016  -38.04688050
     atom   12 type  2   force =    -0.12357124   -0.09845018   37.31241519
     atom   13 type  1   force =    -0.06542714   -0.81902596   -2.70376174
     atom   14 type  2   force =     0.00910432    0.01510561  -38.54585025
     atom   15 type  2   force =     0.03176071    0.14616397   37.35407248
     atom   16 type  1   force =     1.09707887   -3.70327417   -1.54843209
     atom   17 type  2   force =    -0.81393697   -1.44285038  -37.88830159
     atom   18 type  2   force =     0.13822696    0.23132383   37.56831807
     atom   19 type  1   force =    -2.96454007    2.22712421   -0.39937835
     atom   20 type  2   force =     0.09828650   -0.13630571   38.38718481
     atom   21 type  1   force =    -0.27075117    0.88741728   -1.05158402
     atom   22 type  2   force =    -0.57137612    1.75319052  -36.18435785
     atom   23 type  2   force =     0.11181788   -0.30541687   37.41805240
     atom   24 type  1   force =    -0.04026921   -0.35755052   -2.97881830
     atom   25 type  2   force =    -0.23293216   -0.18608540  -38.82455892
     atom   26 type  2   force =     0.00337859    0.06871622   37.18189442
     atom   27 type  1   force =    -0.76685761   -0.68691779   -0.71070207
     atom   28 type  2   force =    -0.11178158   -0.60362499  -38.14496249
     atom   29 type  2   force =    -0.06569820    0.17689508   37.48753680
     atom   30 type  1   force =    -0.03436321    0.59642843   -1.38594711
     atom   31 type  2   force =    -1.32963582   -0.07175734  -37.67642143
     atom   32 type  2   force =     0.27148067    0.01391360   37.83250097
     atom   33 type  1   force =    -0.45233314    0.59320579   -3.28834247
     atom   34 type  2   force =     0.03560842    0.66325503  -38.67582948
     atom   35 type  2   force =    -0.01416777   -0.15216943   37.26045376
     atom   36 type  3   force =    -0.07554785    0.06340484   -8.57501967
     The core correction contribution to forces
     atom    1 type  1   force =     0.00000000    0.00000000    0.00000000
     atom    2 type  2   force =    -0.00002918    0.00052436    0.02062558
     atom    3 type  2   force =     0.00008204    0.00054080   -0.02091789
     atom    4 type  1   force =     0.00000000    0.00000000    0.00000000
     atom    5 type  2   force =    -0.00036861    0.00143191    0.02038521
     atom    6 type  2   force =     0.00004234   -0.00032865   -0.02072690
     atom    7 type  1   force =     0.00000000    0.00000000    0.00000000
     atom    8 type  2   force =    -0.00057622    0.00008373    0.02067048
     atom    9 type  2   force =     0.00036071    0.00069415   -0.02085660
     atom   10 type  1   force =     0.00000000    0.00000000    0.00000000
     atom   11 type  2   force =     0.00037644   -0.00049579    0.02004327
     atom   12 type  2   force =     0.00078357    0.00049433   -0.02081489
     atom   13 type  1   force =     0.00000000    0.00000000    0.00000000
     atom   14 type  2   force =     0.00017394    0.00081754    0.02034788
     atom   15 type  2   force =     0.00004018    0.00064966   -0.02078065
     atom   16 type  1   force =     0.00000000    0.00000000    0.00000000
     atom   17 type  2   force =     0.00059745    0.00129833    0.02011834
     atom   18 type  2   force =    -0.00001461   -0.00007833   -0.02076603
     atom   19 type  1   force =     0.00000000    0.00000000    0.00000000
     atom   20 type  2   force =     0.00008667    0.00042353   -0.02114918
     atom   21 type  1   force =     0.00000000    0.00000000    0.00000000
     atom   22 type  2   force =     0.00029378   -0.00409551   -0.01051002
     atom   23 type  2   force =    -0.00044746    0.00115143   -0.02123354
     atom   24 type  1   force =     0.00000000    0.00000000    0.00000000
     atom   25 type  2   force =    -0.00007293    0.00116093    0.02030712
     atom   26 type  2   force =    -0.00012827    0.00064711   -0.02102948
     atom   27 type  1   force =     0.00000000    0.00000000    0.00000000
     atom   28 type  2   force =    -0.00015558    0.00111829    0.02099874
     atom   29 type  2   force =     0.00004621    0.00017358   -0.02075743
     atom   30 type  1   force =     0.00000000    0.00000000    0.00000000
     atom   31 type  2   force =     0.00008398   -0.00001207    0.02030177
     atom   32 type  2   force =    -0.00070977    0.00045333   -0.02101328
     atom   33 type  1   force =     0.00000000    0.00000000    0.00000000
     atom   34 type  2   force =    -0.00053612   -0.00006065    0.02066111
     atom   35 type  2   force =     0.00004025    0.00061408   -0.02095579
     atom   36 type  3   force =     0.00000000    0.00000000    0.00000000
     The Hubbard contrib.    to forces
     atom    1 type  1   force =     0.00000000    0.00000000    0.00000000
     atom    2 type  2   force =     0.00000000    0.00000000    0.00000000
     atom    3 type  2   force =     0.00000000    0.00000000    0.00000000
     atom    4 type  1   force =     0.00000000    0.00000000    0.00000000
     atom    5 type  2   force =     0.00000000    0.00000000    0.00000000
     atom    6 type  2   force =     0.00000000    0.00000000    0.00000000
     atom    7 type  1   force =     0.00000000    0.00000000    0.00000000
     atom    8 type  2   force =     0.00000000    0.00000000    0.00000000
     atom    9 type  2   force =     0.00000000    0.00000000    0.00000000
     atom   10 type  1   force =     0.00000000    0.00000000    0.00000000
     atom   11 type  2   force =     0.00000000    0.00000000    0.00000000
     atom   12 type  2   force =     0.00000000    0.00000000    0.00000000
     atom   13 type  1   force =     0.00000000    0.00000000    0.00000000
     atom   14 type  2   force =     0.00000000    0.00000000    0.00000000
     atom   15 type  2   force =     0.00000000    0.00000000    0.00000000
     atom   16 type  1   force =     0.00000000    0.00000000    0.00000000
     atom   17 type  2   force =     0.00000000    0.00000000    0.00000000
     atom   18 type  2   force =     0.00000000    0.00000000    0.00000000
     atom   19 type  1   force =     0.00000000    0.00000000    0.00000000
     atom   20 type  2   force =     0.00000000    0.00000000    0.00000000
     atom   21 type  1   force =     0.00000000    0.00000000    0.00000000
     atom   22 type  2   force =     0.00000000    0.00000000    0.00000000
     atom   23 type  2   force =     0.00000000    0.00000000    0.00000000
     atom   24 type  1   force =     0.00000000    0.00000000    0.00000000
     atom   25 type  2   force =     0.00000000    0.00000000    0.00000000
     atom   26 type  2   force =     0.00000000    0.00000000    0.00000000
     atom   27 type  1   force =     0.00000000    0.00000000    0.00000000
     atom   28 type  2   force =     0.00000000    0.00000000    0.00000000
     atom   29 type  2   force =     0.00000000    0.00000000    0.00000000
     atom   30 type  1   force =     0.00000000    0.00000000    0.00000000
     atom   31 type  2   force =     0.00000000    0.00000000    0.00000000
     atom   32 type  2   force =     0.00000000    0.00000000    0.00000000
     atom   33 type  1   force =     0.00000000    0.00000000    0.00000000
     atom   34 type  2   force =     0.00000000    0.00000000    0.00000000
     atom   35 type  2   force =     0.00000000    0.00000000    0.00000000
     atom   36 type  3   force =     0.00000000    0.00000000    0.00000000
     The SCF correction term to forces
     atom    1 type  1   force =     0.00001040   -0.00000197   -0.00004412
     atom    2 type  2   force =     0.00000407    0.00000147   -0.00004524
     atom    3 type  2   force =     0.00000212   -0.00000703   -0.00000051
     atom    4 type  1   force =     0.00000922    0.00001419   -0.00004648
     atom    5 type  2   force =     0.00000040    0.00000892   -0.00002415
     atom    6 type  2   force =     0.00000461    0.00000588   -0.00000481
     atom    7 type  1   force =     0.00000271   -0.00001071   -0.00005456
     atom    8 type  2   force =    -0.00001112   -0.00000675   -0.00003788
     atom    9 type  2   force =    -0.00000753    0.00000610    0.00000347
     atom   10 type  1   force =    -0.00000988   -0.00001409   -0.00006595
     atom   11 type  2   force =     0.00001432   -0.00000795   -0.00004657
     atom   12 type  2   force =     0.00000560   -0.00000430    0.00000169
     atom   13 type  1   force =    -0.00002650    0.00000591   -0.00004342
     atom   14 type  2   force =     0.00000685    0.00000707   -0.00003170
     atom   15 type  2   force =     0.00000261   -0.00000408   -0.00000769
     atom   16 type  1   force =     0.00000301    0.00001249   -0.00003577
     atom   17 type  2   force =     0.00000329    0.00000683   -0.00002862
     atom   18 type  2   force =    -0.00000146    0.00000514   -0.00000066
     atom   19 type  1   force =     0.00001215   -0.00002350   -0.00006593
     atom   20 type  2   force =     0.00000342    0.00000875    0.00000312
     atom   21 type  1   force =     0.00002863   -0.00001032   -0.00008214
     atom   22 type  2   force =    -0.00000384   -0.00001950   -0.00002714
     atom   23 type  2   force =    -0.00000383   -0.00000281   -0.00000759
     atom   24 type  1   force =    -0.00002012   -0.00000490   -0.00004842
     atom   25 type  2   force =     0.00000350    0.00001035   -0.00003534
     atom   26 type  2   force =    -0.00000550   -0.00000174   -0.00000759
     atom   27 type  1   force =    -0.00000013    0.00001005   -0.00004729
     atom   28 type  2   force =    -0.00000297    0.00000393   -0.00002989
     atom   29 type  2   force =    -0.00000348    0.00000178   -0.00000331
     atom   30 type  1   force =    -0.00001710   -0.00000692   -0.00005839
     atom   31 type  2   force =     0.00000081   -0.00001339   -0.00003458
     atom   32 type  2   force =     0.00000355    0.00000391   -0.00000365
     atom   33 type  1   force =    -0.00002722   -0.00000366   -0.00008059
     atom   34 type  2   force =    -0.00000555   -0.00000036   -0.00003900
     atom   35 type  2   force =    -0.00000749    0.00000803   -0.00001100
     atom   36 type  3   force =     0.00000027   -0.00000147   -0.00000550

     Total force =     0.006973     Total SCF correction =     0.000247
     Energy error            =      8.0E-05 Ry
     Gradient error          =      2.5E-03 Ry/Bohr

     bfgs converged in  35 scf cycles and  33 bfgs steps
     (criteria: energy <  1.0E-04 Ry, force <  1.0E-02 Ry/Bohr)

     End of BFGS Geometry Optimization

     Final energy             =   -2205.5966390966 Ry

     File ./MoS2-V-O.bfgs deleted, as requested
Begin final coordinates

ATOMIC_POSITIONS (angstrom)
Mo            6.5301500297        1.7835072063        2.7740400462
S             8.0929638905        0.8659544458        4.3861291849
S             8.1016067069        0.8598263589        1.1929934170
Mo            8.0994182382        4.5062449482        2.7121259253
S             6.5088313544        3.6905695534        4.3282061659
S             6.5348805270        3.5691860516        1.1053931066
Mo            6.4753300930        7.1536240605        2.6766043067
S             8.0489435069        6.3106736992        4.3084612196
S             8.0971036579        6.3365801274        1.1080171382
Mo            8.0974510019        9.9502166623        2.7826681607
S             6.4927317498        8.9459299351        4.3313005241
S             6.5470733533        9.0411922206        1.1413519348
Mo            3.3945983541        1.7758032607        2.7682399422
S             4.9664276073        0.8553520077        4.3628664442
S             4.9673562412        0.8719571267        1.1709426698
Mo            5.0003270531        4.5430926560        2.6536565021
S             3.4478912293        3.6906325038        4.3024076899
S             3.3945613037        3.5778198457        1.1187633523
Mo            3.4123508136        7.2090776281        2.6365969361
S             4.9404703377        6.3189505105        1.0396315489
Mo            4.9741309097        9.9559890902        2.7394685759
S             3.4273597572        8.9661578225        4.2493658116
S             3.3589654175        9.0904381215        1.1419719782
Mo            0.2250502577        1.7652858228        2.7845792228
S             1.8171045687        0.8863850598        4.3900134236
S             1.8052082474        0.8694082814        1.1892204168
Mo            1.8238889646        4.5029690347        2.7156010795
S             0.2327430562        3.6287052718        4.3271072607
S             0.2352971779        3.5685339878        1.1484256705
Mo            0.2224875714        7.2400159194        2.7303561433
S             1.8565451978        6.3219747070        4.2872338803
S             1.7922998178        6.3284243097        1.0955667172
Mo            1.7912802210        9.9781159016        2.7869081952
S             0.2137329820        9.0386476654        4.3707517132
S             0.2234585922        9.0788511065        1.1789185468
H             3.4238294455        9.1194312776        5.6188766860
End final coordinates

     Writing all to output data dir ./MoS2-V-O.save/

     General routines

     Parallel routines

   This run was terminated on:  10: 2:39   4Nov2023

   JOB DONE.